Bi128 Se192
1.0
  16.8642930000000000    0.0000000000000000    0.0000000000000000
   0.0000000000000000   23.1650869999999998    0.0000000000000000
   0.0000000000000000    0.0000000000000000   24.4724530000000016
Bi Se
128 192
direct
   0.2739278782691928    0.5413707274226944    0.2044866528091810 Bi
   0.5588215290139942    0.4525689888408362    0.9961935568943578 Bi
   0.0323462714980106    0.1739583365259971    0.6769202907448632 Bi
   0.9234066319886638    0.1238769360115073    0.8510548574758730 Bi
   0.5079531054162780    0.6453591130480106    0.5862959467120030 Bi
   0.4153094351479780    0.6214610806339731    0.7517513671392075 Bi
   0.3899226608550978    0.0314238405407241    0.5556533298889162 Bi
   0.0876532446394284    0.2192217106717536    0.8509690467073324 Bi
   0.8268475885707156    0.5153919775911051    0.4540656386182456 Bi
   0.2612638430795765    0.5092793305719077    0.0119149069363827 Bi
   0.6769213509276671    0.0738011473904674    0.4851373092840345 Bi
   0.9642266058826183    0.9279524829757816    0.0418956775603982 Bi
   0.1070640791167468    0.4322668850758040    0.2111827531142873 Bi
   0.4379282309670497    0.3164658954227109    0.0466087318668055 Bi
   0.0251640552023141    0.8146526710648659    0.5013514583111058 Bi
   0.1952201613195406    0.0805436215283802    0.0108043521423864 Bi
   0.3333670732594601    0.0930896568616384    0.1950715770094645 Bi
   0.9287433514111738    0.2520137308355458    0.3317068378882983 Bi
   0.4622856113802102    0.4241581307249138    0.1666551366959413 Bi
   0.2565426252971292    0.1341488594452505    0.3539984324415700 Bi
   0.4916790760217460    0.1063673967639319    0.3555663177696163 Bi
   0.6471602456148028    0.0348183022148805    0.9371107996407224 Bi
   0.6725986081954339    0.5187806978665783    0.1363426870203816 Bi
   0.4009423934937563    0.4823292914893866    0.5222198199747282 Bi
   0.3320115465261426    0.2565645447392449    0.2502266528001913 Bi
   0.0067685612435695    0.0473402064063045    0.5423935230358803 Bi
   0.7459488518137107    0.5222384875998956    0.3223939177654156 Bi
   0.4725819220527062    0.4668879508201286    0.7080777721791925 Bi
   0.7468027269213123    0.2986261178298187    0.9388964808717785 Bi
   0.2822887386977918    0.0056712931835741    0.4717385707105046 Bi
   0.1434842243312542    0.2292929009936376    0.9756602658507505 Bi
   0.0557494464784263    0.2621086637835636    0.4997986920232311 Bi
   0.2296307351870606    0.3844626182496099    0.3303453070274565 Bi
   0.1674763359483852    0.9759989245885415    0.8632563315169101 Bi
   0.0082554305715632    0.6306041501160777    0.3901333470739529 Bi
   0.2253364549584142    0.8884965551823744    0.0334155713773360 Bi
   0.0572258795551050    0.0948958231842600    0.2623913507975681 Bi
   0.4240302276531842    0.4872461735196592    0.8664231574987598 Bi
   0.5201522530473113    0.7332715823601268    0.4474418645323376 Bi
   0.3055141416245555    0.8509529880030237    0.2062396442236501 Bi
   0.7593025097464803    0.8418703542965326    0.4304268149988887 Bi
   0.3661540984848876    0.2614248761509076    0.6992106594300129 Bi
   0.4973188025136897    0.9092648777878538    0.5563684196267533 Bi
   0.3780526109217860    0.6948905480044173    0.8950226607851693 Bi
   0.9298877812428900    0.3521510625019453    0.0491393322933341 Bi
   0.7296599981985606    0.1944598783505540    0.7672708575638085 Bi
   0.1239589468707642    0.7811712513749679    0.3642082794070541 Bi
   0.0370831436574305    0.5745327008700637    0.5322351625315206 Bi
   0.8716523129668109    0.4495817347890815    0.1712594973621974 Bi
   0.2252931682342094    0.1721733227248402    0.5687905499297516 Bi
   0.4428196308021925    0.8067658023472997    0.3059721884030179 Bi
   0.2684571478922952    0.7368372931213253    0.6334550933655894 Bi
   0.5900472673239251    0.3313671992684509    0.2638252078776083 Bi
   0.4725350775155531    0.3251915263689707    0.5803750036827121 Bi
   0.1801682406727634    0.6494860131541920    0.0164144558782072 Bi
   0.5936033013657910    0.7675041324040787    0.7927198797766615 Bi
   0.6504749413450062    0.4320165082911193    0.4446877474848965 Bi
   0.1973898342492033    0.5452127160152690    0.6936411319290305 Bi
   0.4707970858902890    0.9027507645449379    0.1505635744810706 Bi
   0.5615503715453710    0.9702834269519472    0.6591901514735773 Bi
   0.8730280006401692    0.2615435892815771    0.1896806176315876 Bi
   0.6853118597975023    0.2967798048848252    0.6320126552086952 Bi
   0.2698553683809929    0.3475022563049299    0.1293589163293112 Bi
   0.3438715159894340    0.8814169357533602    0.9112981032183409 Bi
   0.1429440297319312    0.1016046259614738    0.4728132484307968 Bi
   0.8232660568693867    0.9381229606433165    0.1965283169611154 Bi
   0.5195681787549588    0.6941264671270175    0.2275909979273430 Bi
   0.7383469914807576    0.4278494615625661    0.6950713114047047 Bi
   0.2962282498293881    0.9495496390753897    0.3369498758461197 Bi
   0.1090973692167232    0.8906118073288480    0.2483437193647894 Bi
   0.4777650625496129    0.5746276713745992    0.0790958715908046 Bi
   0.3029513303641013    0.8458073133936428    0.7307236426197242 Bi
   0.5862143168409134    0.1822842279849845    0.5707560251520352 Bi
   0.4244719894276030    0.2041921966448907    0.9202714578714278 Bi
   0.5804162676727687    0.7379553549701756    0.0765403451791285 Bi
   0.4593077219424496    0.8093688575397968    0.6667210679697698 Bi
   0.7644139010155954    0.1138458923119952    0.0979354215125063 Bi
   0.4665294892587551    0.0198433962281255    0.8482394470223316 Bi
   0.7949280767358584    0.6892700208723586    0.4388607876782928 Bi
   0.2029228263526968    0.3894252587957041    0.5791899978314393 Bi
   0.0966681496816973    0.2628632476105097    0.2612137001550274 Bi
   0.1807991595022691    0.3987548158139877    0.7572309976445761 Bi
   0.8597514286546136    0.9896012909427019    0.3738954979298560 Bi
   0.4725742134579849    0.1041243661204467    0.6319595342567416 Bi
   0.4993924144937473    0.5080101792840235    0.3189954027085066 Bi
   0.2298169273980237    0.5678631813469986    0.8610742862597386 Bi
   0.5601337690231070    0.9524548731459547    0.3165918839439593 Bi
   0.5814836115572707    1.0039375202864553    0.0840953704150540 Bi
   0.5360651644275867    0.1871044127742754    0.2097991566272494 Bi
   0.8859487913308906    0.4092205654138057    0.5870886747642339 Bi
   0.7294524591099075    0.1279792301233317    0.2911792291520592 Bi
   0.7635659555962411    0.9522994668658055    0.5770283837096346 Bi
   0.9683062313967148    0.6182364003208795    0.2196081447168373 Bi
   0.5851108018581034    0.3202457215032260    0.7435176195863977 Bi
   0.3536715117556365    0.7995696282081738    0.0239046326904786 Bi
   0.6666867090129422    0.0146697053199066    0.7887317221530673 Bi
   0.8978911834608186    0.0947300564854343    0.4480261950038273 Bi
   0.2638136090258868    0.1505291130570759    0.8014031123075402 Bi
   0.1103870764104964    0.4641294893474823    0.4298792605710592 Bi
   0.0293883058127607    0.7519160191369020    0.1118837576274025 Bi
   0.5856065237955721    0.2822773771581346    0.4038826839303767 Bi
   0.1196818627380347    0.0113797975375616    0.1354604705952444 Bi
   0.3019266802349793    0.8384730003388290    0.4427304447167597 Bi
   0.5696864967893999    0.8758956959669524    0.9886544679440185 Bi
   0.6039506073572132    0.6372564022746818    0.3598646200280781 Bi
   0.6699717563019096    0.3143890631621630    0.0980874291596351 Bi
   0.3287324289254225    0.0221723320098042    0.7232417608484119 Bi
   0.7697446907498582    0.8564483267427402    0.0815802976514042 Bi
   0.7679361358344521    0.2632806861463546    0.4746152745701462 Bi
   0.5363065027392491    0.3367671358195202    0.8830581879143868 Bi
   0.7435710468265702    0.6578736354411274    0.2111406649754317 Bi
   0.9059555594770560    0.7674264292640041    0.2471726066855660 Bi
   0.3111099884234696    0.3238325847858893    0.8390168325177700 Bi
   0.6541572777465382    0.5725210529103560    0.4912176151691863 Bi
   0.0970304536336033    0.4200981416560188    0.9746713988989987 Bi
   0.2849203343419140    0.6446597847873398    0.5118081133918205 Bi
   0.9134388260450645    0.1148098429330311    0.9935988027027776 Bi
   0.2019183371636154    0.9218053012276622    0.6437074370926363 Bi
   0.2231691539040504    0.6979209704673245    0.1978350923791742 Bi
   0.4297571205623621    0.3716135406700609    0.3737475765098006 Bi
   0.4059772917844821    0.0755261571001223    0.0514018762238505 Bi
   0.7513507978069403    0.1149954671009869    0.6432375209792005 Bi
   0.5651443555920193    0.6451216867866717    0.9568472764050255 Bi
   0.3367244627450436    0.5434298606346698    0.3968605027048167 Bi
   0.5955660281756252    0.2053944368954885    0.0079099549195171 Bi
   0.3732116134367447    0.2485119093228530    0.4275378524580269 Bi
   0.1342949864545167    0.6051909064705866    0.3140686387261628 Bi
   0.9247348821560442    0.3723202075606278    0.4354978227969219 Bi
   0.9778708185395023    0.1670656363172735    0.5540964773739682 Se
   0.7636786196729385    0.1049488827734599    0.8517331711700498 Se
   0.8748839930615532    0.7106599685984344    0.1587687184443668 Se
   0.1020926284902664    0.4783405302988933    0.0737310640661972 Se
   0.3531746038805184    0.0707754734527870    0.3107154807897680 Se
   0.2322522503611625    0.1990637893999707    0.0886204582760870 Se
   0.4389564389091200    0.7909186786132080    0.5499530431215865 Se
   0.2881277027148425    0.6914759266822526    0.8022244439492845 Se
   0.8297294170588710    0.0513885400041882    0.5387976432113283 Se
   0.4598117454434645    0.1820666591927758    0.8018607697397558 Se
  -0.0116133537290890    0.0098016899310588    0.6368507480635471 Se
   0.9066137548724990    0.7209901693872335    0.6062203899216804 Se
   0.6117896552200557    0.0411271928311774    0.5768485897184070 Se
   0.9845713662588760    0.2699484789329736    0.7956701357236236 Se
   0.9187162485851021    0.5157243743569796    0.3725515378454297 Se
   0.9301783359670043    0.8531934285418398    0.6274646844760514 Se
   0.3842947937396486    0.4449972495246835    0.0741772800626075 Se
   0.8094320941885912    0.7650694340150762    0.5847390941970549 Se
   0.9101893568855807    0.7670983493392449    0.4156510179016382 Se
   0.1878922525836096    0.0565484601892495    0.5892543751131119 Se
   0.7617751897455766    0.1497348142918695    0.9938358038730322 Se
   0.4889514194280187    0.3775211377362839    0.4776595137397955 Se
   0.2992921197467335    0.0039221955004961    0.9274100965685785 Se
   0.7812186375082548    0.6334705326166054    0.6043693290574508 Se
   0.7318539828500370    0.3273624657658312    0.7551143320205784 Se
   0.2152459044680972    0.4986771687928476    0.3221205491742082 Se
   0.7499513913805932    0.1541686418013453    0.4140328719805897 Se
   0.6198125234185625    0.2846909230256722    0.5270129643317732 Se
  -0.0060980320965723    0.4905442401317121    0.2659320665566300 Se
   0.5444497436091748    0.5253120784739553    0.5718960825055011 Se
   0.1702093292615350    0.8686952049867114    0.1470772055420844 Se
   0.7749983945369071    0.7026349609651801    0.7206919551546385 Se
   0.1067794540808796    0.2674563665571383    0.6177803263122009 Se
   0.1832232160577381    0.7444565176897459    0.0902218506661347 Se
   0.1229704678399503    0.8882936636499574    0.4408303491276497 Se
   0.7621191116639162    0.8665108833823936    0.8045535933810966 Se
   0.0679672726274383    0.3650920887972491    0.3716349971128762 Se
   0.4878799247617436    0.6247720977693717    0.8506748383580509 Se
   0.4903911477344469   -0.0023869541262677    0.4130317463476179 Se
   0.8866247757910751    0.8220646872597543    0.7024632961804033 Se
   0.9616056836773411    0.3602425494883745    0.1706604564732436 Se
   0.8347577926925249    0.5919900063401445    0.9195359369982240 Se
   0.5056156223092186    0.0966942191928742    0.9461740512894232 Se
   0.6110662332538932    0.7654752170799100    0.9652403868136961 Se
   0.1217584395622159    0.6645863233753451    0.5882655081613600 Se
   0.3245211643322373    0.6020180282508760    0.9395788807930288 Se
   0.3122627198187318    0.9054833249708927    0.5464756638821616 Se
   0.7064393390223949    0.8285831173437855    0.7322478053180854 Se
   0.9082384894522408    0.2816479817235308    0.9563283255667095 Se
   0.6921784387877985    0.5920461252746428    0.6653317507648292 Se
   0.0720314809520921    0.7946182114489793    0.7748467225578081 Se
   0.7498505866803903    0.3667385319986064    0.2114177111710052 Se
   0.4481830338218151    0.8075039821780079    0.8582670482603439 Se
   0.3432483057546498    0.2509491978165245    0.5314628656146565 Se
   0.4234965557109331    0.3887678038938511    0.2624975927014754 Se
   0.3405485186956844    0.5331428282570232    0.7815563074122565 Se
   0.7337692721538933    0.9432211500004295    0.2894879397663978 Se
   0.8774515480726052    0.1200837277235350    0.7325747034839539 Se
   0.9904654763766259    0.6699737410871801    0.0310198981687696 Se
   0.9536599014260484    0.6377873737318578    0.7014948603640182 Se
   0.0036541110854751    0.9899423213908067    0.2198553614547753 Se
   0.8439073016580060    0.7356976470668987    0.7895734849301784 Se
   0.7177887623275995    0.8058722162364423    0.2095932107827523 Se
   0.8780623059620702    0.5287310166372352    0.5718143579640340 Se
   0.5989696692295372    0.8499644313876309    0.3150807971722328 Se
   0.3349959586209751    0.4031687858543333    0.6575311432817952 Se
   0.2201444199291367    0.9882026344213601    0.2416880727077093 Se
   0.6518862071478478    0.1117129411169490    0.7355535630204295 Se
   0.6354609707030113    0.6296803461174137    0.1053245459292536 Se
   0.8893109245670719    0.4473499279324960    0.7317738029775764 Se
   0.1683794274684388    0.0211439309509176    0.3772347626942015 Se
   0.7216845675060318    0.9758046667383551    0.6823427140712047 Se
   0.6457667688767029    0.7177913901208315    0.5259505452927011 Se
   0.4398358116761847    0.3907431903881907    0.7990331006049944 Se
   0.2890497692372873    0.6427431073321677    0.2741621365050737 Se
   0.8837192285499309    0.7937634769081593    0.8852075433549713 Se
   0.4416022658050355    0.6936213967165329    0.3302272150650366 Se
   0.2490320821631835    0.5207405437329029    0.5801012264687974 Se
   0.9355921413367284    0.9563011785796445    0.9203245788233815 Se
   0.6129400147400190    0.9297957741319944    0.8973518102169814 Se
   0.6184249763687099    0.8796729319427984    0.1070088887288904 Se
   0.0278985309375258    0.7413958773390318    0.7041059594638919 Se
   0.7923130842188285    0.7446162408110101    0.0282334590651783 Se
   0.1059060110020622    0.5070173058275154    0.8267785824330727 Se
   0.3858709048757632    0.9290964458713236    0.6680736091310502 Se
   0.7133355664539272    0.9950318770656895    0.0282185851986313 Se
   0.8625265227543187    0.3863097945628264    0.3307588332072801 Se
   0.5096733079768004    0.7039084290941796    0.6960520059023098 Se
   0.1092527270488007    0.7137896784069925    0.4543108122426468 Se
   0.2539620249719333    0.2029580117700400    0.8925504934057897 Se
   0.0942927165698556    0.5582064077721789    0.9590007180726835 Se
   0.9327043831603258    0.5351846941045376    0.0240451580395312 Se
   0.9573837456453111    0.0266712143148869    0.1016428553361610 Se
   0.5880892842646886    0.3178744806786178    1.0088322572322439 Se
   0.2160268444102578    0.2586318799493393    0.3510812749339022 Se
   0.5139563217977771    0.2457310002764073    0.6572246762512935 Se
   0.3876800527599942    0.2029865029214007    0.1647395134439527 Se
   0.8952524721907997    0.2951855954609625    0.6049822631184540 Se
   0.4298721565143584    0.7837915739319262    0.1537696282428247 Se
   0.8214990097717111    0.4675052590996097    0.8498330755809398 Se
   0.3612164470814163    0.9363530557860630    0.8073158828826844 Se
   0.2898846693424978    0.1355889576412987    0.6766955482558287 Se
   0.9959207895640807    0.8802859233811642    0.3358645739354366 Se
   0.1478965053560206    0.8210243285509786    0.5728972081384731 Se
   0.5941251139315475    0.4271807828738136    0.1095268218514915 Se
   0.9725400288052395    0.6788621169434849    0.8875857275116638 Se
   0.0150933098707429    0.6091062813621205    0.8195010120154280 Se
   0.6751127960122609    0.5341572859191075   -0.0156170286648421 Se
   0.9400275481456589    0.4594413998963182    0.9603982077317708 Se
   0.5849880573113857    0.4050306394273417    0.6643837460838110 Se
   0.7501707898457409    0.7886825549155072    0.9070729444244922 Se
   0.0486200637050127    0.8350152106055116    0.8944955374927065 Se
   0.9033287075835316    0.2632854346715814    0.4376635231457998 Se
   0.9670787859295377    0.9837347038670738    0.7753820183044176 Se
   0.2454558871812770    0.3447822147182094    0.2318435344425832 Se
   0.4380053169142638    0.5414268463571926    0.1870000526714669 Se
   0.0164316405081434    0.1610660905352957    0.4156387592204181 Se
   0.2796393539889279    0.3162854514640934    0.0214189398994862 Se
   0.4058978339619692    0.9203677931362831    0.2527082185018396 Se
   0.4807376152679511    0.0414931746209285    0.1990274534391791 Se
   0.4774519750101590    0.2471875024686935    0.3121803931955656 Se
   0.5452532163666748    0.2921689868896241    0.1457295678532920 Se
   0.6273788056220322    0.8656993172527261    0.6221485030536170 Se
   0.9531499482367864    0.8049095606677412    0.0061285233646174 Se
   0.6343876971302621    0.3818306402216405    0.3592606756666363 Se
   0.1389628370427388    0.3324407976538141    0.8941768117809848 Se
   0.6974084238218584    0.0475180602602529    0.2131731543217184 Se
   0.8129780477604368    0.5964147684832783    0.8233338930102347 Se
   0.5555009035955436    0.1226751274450210    0.0896424236671330 Se
   0.6431102685419423    0.5934534154782152    0.7668336312669596 Se
   0.0795645569013774    0.7320758173712019    0.2644111728399274 Se
   0.1666254256849072    0.9700848522606457    0.7320802700080781 Se
   0.7853634895930710    0.5491928435235318    0.2014567154342885 Se
   0.2896302857166915    0.4207322856158494    0.4255805496898900 Se
   0.2327509371427548    0.2674088813048706    0.7602180296351982 Se
   0.1910011881316341    0.3293646166750853    0.4945274590986036 Se
   0.6138235382888567    0.6022554545122150    0.2547243629398328 Se
   0.1209632683682619    0.5976537018833558    0.1447938218534938 Se
   0.9690296533628773    0.1997864286026640    0.2312829040881190 Se
   0.8934142688341574    0.9310476580554177    0.4823872784636668 Se
   0.7812423562612438    0.3907980142703544    0.0167257855189261 Se
   0.3083248138537441    0.7217715176290942    0.4142004072905973 Se
   0.1054749226664883    0.1009307670633829    0.7860797607824601 Se
   0.6847129612845317    0.6980461588596668    0.8488033463584546 Se
   0.8228213302508441    0.9291525648058219    0.9161811445709998 Se
   0.1967897497985833    0.1619924846386288    0.2451683123060855 Se
   0.0505750819201256    0.4350382970717960    0.5337797563652487 Se
   0.3125532745428463    0.6267276267945810    0.1256727308864379 Se
   0.7525308057681397    0.1880126761449245    0.5573041656265516 Se
   0.7276201854415124    0.1797601709848964    0.1847665209531713 Se
   0.2272416637922503    0.8393881706552625    0.8419956920542455 Se
   0.7304367873589482    0.5932505239457982    0.4000453080857893 Se
   0.4801885261362572    0.0507500792032424    0.7366037233782816 Se
   0.9401461419106036    0.8498521935186344    0.1766831465566611 Se
   0.6795007653152136    0.7479790600397919    0.3830081929261444 Se
   0.9499834947127639    0.5674142298710124    0.1014920735571542 Se
   0.6401513541065730    0.0366611185185706    0.3631924433566182 Se
   0.9214972723730547    0.9020989215365348    0.8016809757485283 Se
   0.4519715116429725    0.8576527254138955    0.4169872141546252 Se
   0.9056412859999526    0.3835003943650201    0.8552963611780151 Se
   0.1000296899490539    0.3215135777387756    0.0860453179744589 Se
   0.2629395729782446   -0.0035586743101807    0.1046838255241516 Se
   0.4296349689844691    0.6347785354745269    0.4887617926981001 Se
   0.1855494327571277    0.5598942926482426    0.4559330443907686 Se
   0.5598017064812618    0.1675547344156316    0.4566031856307988 Se
   0.4043460345476682    0.1947171620810231    0.0340728818643558 Se
   0.5899660305949380    0.4526639593453718    0.2414441249514301 Se
   0.5650447368294657    0.8933573182781486    0.7560459917933032 Se
   0.7564562593878082    0.2411909784754963    0.3205265119928926 Se
   0.6505579569804675    0.5482172374314848    0.8456773826473380 Se
   0.8708636644299289    0.0806830554964028    0.2762853400923888 Se
   0.1918479476133390    0.6933062673151196    0.7259059809002392 Se
   0.8130847821488869    0.2586651196259268    0.0873341139933949 Se
   0.8906451044226994    0.5622297036915942    0.7085885505633620 Se
   0.2663544804398263    0.8279355911764977    0.3281317978218202 Se
   0.5954770828519167    0.4527114445976396    0.8807372109367213 Se
   0.0351619839622094    0.1708873357566065    0.0668854078502061 Se
   0.6419954871514626    0.2277254559846894    0.8845700919315280 Se
   0.8749432899440255    0.6461231939254103    0.3223154622056073 Se
   0.1189643704601195    0.9672745886946162    0.9868197519880821 Se
   0.3672338947147087    0.1225477806321211    0.4547725559019359 Se
   0.2625191580815158    0.4496076358357731    0.8923911305499288 Se
   0.5387613936736037    0.5248847112035453    0.4117527572736578 Se
   0.3799145330314173    0.9205275162575476    0.0359662351787947 Se
   0.8024884292510810    0.3701056680685033    0.5131238785094407 Se
   0.3452211130345043    0.6248757019561377    0.6374718545786970 Se
   0.6905596338963038    0.9428110500944806    0.4675134119166558 Se
   0.2334067606628988    0.7514498002964548    0.9418916853165474 Se
   0.1070723806802930    0.4190491492650125    0.6595456532289590 Se
   0.4295353502219156    0.4007854578746025    0.9459779123899021 Se
   0.9207857097833866    0.6390004060852438    0.4790896932154696 Se
   0.4616873058360644    0.6863561531195631    0.0329207292787527 Se
