Bi4 Se4
1.0
   0.0000000000000000    5.9680700000000000    0.0000000000000000
   5.9474320000000001    0.0000000000000000    0.0000000000000000
   0.0000000000000000   -2.9625859999999995  -12.5599249999999998
Bi Se
4 4
direct
   0.1854709999999995    0.5000000000000000    0.8638089999999997 Bi
   0.8145290000000005    0.5000000000000000    0.1361910000000003 Bi
   0.6854709999999995    0.0000000000000000    0.8638089999999997 Bi
   0.3145290000000005    0.0000000000000000    0.1361910000000003 Bi
   0.3065730000000004    0.5000000000000000    0.1026769999999997 Se
   0.6934269999999996    0.5000000000000000    0.8973230000000003 Se
   0.8065730000000004    0.0000000000000000    0.1026769999999997 Se
   0.1934269999999996    0.0000000000000000    0.8973230000000003 Se
