Bi3 Se4
1.0
  13.0906328456580425   -1.9993079875648694    0.0114244010024242
  13.0906328456580425    1.9993079875648694    0.0114244010024242
  12.7822720422578620   -0.0000000000000000    3.4605715123561911
Bi Se
3 4
direct
   0.0000000000000000    0.0000000000000000    0.0000000000000000 Bi
   0.4241502000000000    0.4241502000000000    0.4241502000000000 Bi
   0.5758498000000000    0.5758498000000000    0.5758498000000000 Bi
   0.1296175700000000    0.1296175700000000    0.1296175700000000 Se
   0.8703824300000000    0.8703824300000000    0.8703824300000000 Se
   0.2889640400000000    0.2889640400000000    0.2889640400000000 Se
   0.7110359600000000    0.7110359600000000    0.7110359600000000 Se
