Bi288 Se216
1.0
  17.7746670000000009    0.0000000000000000    0.0000000000000000
   0.0000000000000000   21.9862549999999999    0.0000000000000000
   0.0000000000000000    0.0000000000000000   41.6504580000000004
Bi Se
288 216
direct
  -0.0275906716002049    0.6809026821530088    0.2960663721873119 Bi
   0.1213924288989493    0.8364271223089154    0.2867075315234229 Bi
  -0.0144358259988781    0.3395539622368611    0.2917783040945192 Bi
   0.1228118647736129    0.5184784766664445    0.2854662486544566 Bi
   0.2566410948795834    0.6854782681270639    0.2894085822537654 Bi
   0.3544989056616363    0.8536287785254925    0.2966353935411707 Bi
   0.9676580720190144    0.0106773982199333    0.3011851634380587 Bi
   0.1020615463569585    0.1805055021876168    0.2843138003428438 Bi
   0.2331391074724494    0.3378438028668366    0.2857783700721850 Bi
   0.3726781491883926    0.4916844637706603    0.2945177697685821 Bi
   0.4805732788130433    0.6900038228429535    0.2899031746541659 Bi
   0.6317249150152855    0.8250927681863054    0.2922128731453565 Bi
   0.2358806496909338    0.9999292739941386    0.2871445015082427 Bi
   0.3646211768693051    0.1761914432448819    0.2868803987701648 Bi
   0.4915248201274319    0.3479792261119504    0.2887915422202560 Bi
   0.5981884217577748    0.5380861815711681    0.2973556737359287 Bi
   0.7355187019818712    0.6747169993252603    0.2995117124522376 Bi
   0.8596673006588534    0.8535241677129642    0.2889235935892950 Bi
   0.4867787396523378    0.0339944206050553    0.3008802448222779 Bi
   0.6129453789485901    0.1873447751788561    0.2928587243866562 Bi
   0.7337577688515908    0.3391810019487175    0.2951540172739517 Bi
   0.8647475646097899    0.5068939662530068    0.2894662046693460 Bi
   0.7367114106835306    0.0069153659866130    0.3071634890545502 Bi
   0.8458217529476080    0.1779707367170989    0.3003112234684190 Bi
   0.1114710053358524    0.6175221746495708    0.0304236750529850 Bi
   0.2435145479799987    0.7758256237817673    0.0339989058463655 Bi
   0.0980142131495347    0.2879358035281588    0.0380408782059491 Bi
   0.2314946322201142    0.4496345557713217    0.0416600460912099 Bi
   0.3599043515133082    0.5934116565099423    0.0424237831910516 Bi
   0.5053315485460290    0.7785864395732698    0.0370027143519046 Bi
   0.0852685453966592    0.9521630673345688    0.0449130715441352 Bi
   0.2326890287171062    0.1155062560677114    0.0397397790919850 Bi
   0.3637333965243906    0.2949433634786825    0.0463332239947998 Bi
   0.4913982354774916    0.4398798249178862    0.0392271796867156 Bi
   0.6102561583854145    0.6142337564992310    0.0369268448380568 Bi
   0.7366382728857874    0.7794733573316601    0.0422341094064320 Bi
   0.3560786820928910    0.9506211949238286    0.0478715023974046 Bi
   0.4716555308743619    0.1218424874995764    0.0254242102211697 Bi
   0.5989816855640671    0.2840283622654245    0.0377088290361657 Bi
   0.7389955603668975    0.4456916377982517    0.0452163095061284 Bi
   0.8571412336444897    0.6154254101028120    0.0293012384161538 Bi
   0.9817849189523494    0.7962110873361562    0.0404826280661788 Bi
   0.6221326115420334    0.9553286814875931    0.0385923727417355 Bi
   0.7199684809847633    0.1180874141594373    0.0384444752084119 Bi
   0.8353911777925291    0.2823095611326258    0.0397275343286741 Bi
   0.9929018642093266    0.4409277523616459    0.0512409731484825 Bi
   0.8679825056638192    0.9436441085578240    0.0365751080096166 Bi
   0.9557478629557448    0.1251595599159566    0.0410785398806419 Bi
   0.0603634374697428    0.6702778622371114    0.1393552503072115 Bi
   0.2256362946208781    0.7098071044841424    0.1466696956849790 Bi
  -0.0016861075372045    0.4029895041242813    0.1716322063013088 Bi
   0.1424780559883344    0.4537621345699848    0.1790614163234411 Bi
   0.3681880510054000    0.6405047153323747    0.1560182123327432 Bi
   0.4928761815903499    0.8627981436583901    0.1421035994370098 Bi
   0.0334240298285194    0.9487291037059291    0.1788364488092784 Bi
   0.0351473251228842    0.1673923094224096    0.1681093158687475 Bi
   0.2633512065233065    0.3521845807755800    0.1620027803775891 Bi
   0.4310938708443877    0.4033556419681297    0.1668485854345227 Bi
   0.5086081218849277    0.7280412239374101    0.1764736896770739 Bi
   0.6371258600794040    0.8112568511554151    0.1710958376496124 Bi
   0.2637703423642198    0.0490606517572001    0.1662867668826115 Bi
   0.3770360367370033    0.1381262975436244    0.1643989124921507 Bi
   0.5609123366418060    0.3083831239108252    0.1540249569404495 Bi
   0.5767140391434619    0.4733229920238803    0.1469542063619084 Bi
   0.7741467111592020    0.7227833935338237    0.1673549424114376 Bi
   0.9457392366338001    0.7332353781942399    0.1667892823651543 Bi
   0.4479915151153043    0.0098417852426436    0.1617975005220831 Bi
   0.7640030612106545    0.0711494522373183    0.1682747402201436 Bi
   0.6888005271772462    0.3830684216115933    0.1669350190578937 Bi
   0.8686970056879265    0.4750695377634800    0.1485016083136469 Bi
   0.8533436941462813    0.9554605820773024    0.1987908512314559 Bi
   0.9243211138639054    0.0706918936399128    0.1796616498190728 Bi
   0.1764207453225425    0.5851792403936005    0.1768335896810546 Bi
   0.3562879687141256    0.7916673394354791    0.1584263491172174 Bi
   0.1419593402228014    0.2853464585032785    0.1756643348315642 Bi
   0.3071691863481887    0.5101459980337716    0.1634373384321488 Bi
   0.5234404672672630    0.6362429617959039    0.1256785699691466 Bi
   0.5467618605738156    0.9264060659716720    0.1965824721543278 Bi
   0.1748690988134967    0.9395324487958500    0.1418632659453589 Bi
   0.2258579584078846    0.1840299769105743    0.1522806784021438 Bi
   0.4204585098556277    0.2660498570584213    0.1687453232807188 Bi
   0.4676492673533631    0.5382817583076336    0.1893362133016641 Bi
   0.6327319662303660    0.6333138590451171    0.1823149219631630 Bi
   0.7536906317288532    0.8151865790695141    0.2169152617721515 Bi
   0.3315353249655816    0.9202158348477264    0.1746360148068480 Bi
   0.5419207009616551    0.1720065559141382    0.1725457616816603 Bi
   0.7035406064147363    0.2368429730301955    0.1796537267369305 Bi
   0.7377240878830529    0.5224491392463155    0.1767370721349571 Bi
   0.8819687029861094    0.6103995428052663    0.1674908352748486 Bi
   0.1062905988618521    0.8076546005674909    0.1653965005618906 Bi
   0.7005307047383785    0.9485426235618571    0.1618666474207799 Bi
   0.8586377455060059    0.1756506508270735    0.1491678674937980 Bi
   0.8365726345253051    0.3115987693220150    0.1805072587677187 Bi
   0.0124675753419178    0.5336834308525941    0.1589038948863420 Bi
   0.8612875841780890    0.8468472688959534    0.1561946809804589 Bi
   0.9842828560445043    0.2823177480657802    0.1360928612117543 Bi
   0.1029161333936664    0.6061241443802048    0.6317361504164012 Bi
   0.2556728629571514    0.7775266865593981    0.6272271963972161 Bi
   0.0939303110432392    0.2958689417547463    0.6229655385782312 Bi
   0.2252931095699289    0.4606286973384053    0.6362258969637261 Bi
   0.3487553381450128    0.6134332563685811    0.6329990416912102 Bi
   0.4753804951732711    0.7944099620421942    0.6300002751470344 Bi
   0.0673897294390944    0.9454179440746048    0.6189727853652894 Bi
   0.2187225223403623    0.1158401010085619    0.6248622764244274 Bi
   0.3479181916600744    0.2974130883135850    0.6341586928047707 Bi
   0.4752876664299814    0.4611108167352739    0.6204037420188753 Bi
   0.5949984885792797    0.6181907741905113    0.6282115793300520 Bi
   0.7316423987014777    0.7806695592314381    0.6319858475505841 Bi
   0.3432075548869635    0.9601908101220513    0.6357241017613781 Bi
   0.4822228174513762    0.1315949442049135    0.6123702169133410 Bi
   0.6070999811135702    0.2980539432477246    0.6246894091776855 Bi
   0.7167504178840594    0.4735367619451335    0.6161252776620127 Bi
   0.8380185125268451    0.6254544032169189    0.6143918033266286 Bi
   0.9732728044919211    0.7809197155222660    0.6330806734466161 Bi
   0.5963993587052854    0.9610095034374886    0.6221300135523120 Bi
   0.7249699811535147    0.1293885657198099    0.6260531396797605 Bi
   0.8404939456812328    0.3008361360313523    0.6178035305157989 Bi
   0.9689633004095097    0.4597508761724086    0.6228815058888428 Bi
   0.8261589373235515    0.9527725390249500    0.6294288528591931 Bi
   0.9631066506056063    0.1271844613828048    0.6216018080761562 Bi
   0.1096076792887315    0.7372606203284733    0.3595062508076142 Bi
   0.2425131227493601    0.8971878112029538    0.3688410821316779 Bi
   0.1126850927783907    0.3972099841469136    0.3605002374763802 Bi
   0.2529937691659709    0.5621739582298122    0.3594822414677889 Bi
   0.3442281084647043    0.7312796108295841    0.3800606466320250 Bi
   0.4791493421508262    0.9004443912799155    0.3753764244321155 Bi
   0.1056931193141340    0.0752783955248404    0.3594342227881384 Bi
   0.2435454908944286    0.2427957830926640    0.3645218018971124 Bi
   0.3622532000177556    0.3924729336578694    0.3589492341236680 Bi
   0.4606280387700090    0.5627925265125870    0.3663945304034832 Bi
   0.6193308712900220    0.7420499762237817    0.3747545825306411 Bi
   0.7573812775226675    0.8825695872262010    0.3765120662058506 Bi
   0.3500853208670520    0.0501836260882083    0.3836188307941296 Bi
   0.4957279931038934    0.2432506127123514    0.3744928807265457 Bi
   0.5977270910335479    0.3962957766113420    0.3666946471512990 Bi
   0.7312485797905525    0.5699560930226635    0.3677030394239603 Bi
   0.8603986786362862    0.7233610271508267    0.3698902902820421 Bi
  -0.0020611919199386    0.8975835129720819    0.3621160660466207 Bi
   0.6007313667254638    0.0863252973278078    0.3814459855399429 Bi
   0.7198840912181365    0.2233440847474934    0.3740535098077433 Bi
   0.8476614498600734    0.3919207704995690    0.3754220421777835 Bi
  -0.0184335380235253    0.5610505290691844    0.3626802855325145 Bi
   0.8930800222586449    0.0718089551858650    0.3843247053849924 Bi
   0.0004590240706057    0.2308474089834763    0.3731171455545579 Bi
   0.0625148139202833    0.6184454787775363    0.4898937725966903 Bi
   0.2088095377539281    0.8450961748601570    0.5146978215701734 Bi
   0.1437934111508249    0.1726351304485461    0.4707271166141799 Bi
   0.1928424313096836    0.5167410275192388    0.5078719662578500 Bi
   0.3627128429466498    0.5592357588866317    0.5023186059562659 Bi
   0.4679688232696568    0.7484130426032082    0.4727703114333101 Bi
   0.0787289010815224    0.9202112865515295    0.5038239915633101 Bi
   0.2769379589502295    0.1210783737385016    0.5014494678545912 Bi
   0.3841984775298463    0.2926105423593058    0.4811615757022408 Bi
   0.4779915145527058    0.4729045487737679    0.4852311588026235 Bi
   0.5472074385416054    0.6133832251104157    0.4879970347504942 Bi
   0.7483965803691287    0.8158096956484858    0.5130051631124921 Bi
   0.3802906687365789    0.8550978781970827    0.5013990482409582 Bi
   0.4596243631455937    0.1532975943379170    0.4919249627459079 Bi
   0.5767309170967873    0.2827170884718657    0.4861579193198788 Bi
   0.7794688924411354    0.4568308700140156    0.4880138412883719 Bi
   0.8946215419956953    0.5715389000991756    0.5011853651165132 Bi
   0.9221382319004907    0.8057761542381821    0.4937376679027155 Bi
   0.6677649713493929    0.9225400142043291    0.4890054270231555 Bi
   0.6996249212432504    0.1780557898559805    0.5088539482567035 Bi
   0.8689726789255743    0.2400618022487231    0.4812312027877341 Bi
   0.0402916690366126    0.4873044545330708    0.5010533137474743 Bi
   0.8338777879776875    0.9218168351090260    0.4772408505087748 Bi
  -0.0018543244720140    0.1529496496788562    0.5027699815449809 Bi
   0.0955010858993870    0.7676932701817567    0.4905324210360424 Bi
   0.2354682650313505    0.9502937175976536    0.4739563728206783 Bi
   0.1527567295634849    0.3921281728061464    0.4884099953954888 Bi
   0.2292234223009635    0.6453213610048641    0.4897809286995116 Bi
   0.3340135711121902    0.7202727340331494    0.5190963326261623 Bi
   0.5471196731843133    0.8328476132019754    0.5092525032978029 Bi
   0.1240838998559017    0.0530836197433351    0.5128875173473483 Bi
   0.2265375773284529    0.2640481519021771    0.5099487741527357 Bi
   0.3185668682288113    0.4047069407682209    0.5018744331694984 Bi
   0.4947912666943353    0.6826401313002146    0.5405438758920731 Bi
   0.6364619939152728    0.7148966479284444    0.4964915391806736 Bi
   0.7488522851089138    0.0383200777030922    0.4997183944531895 Bi
   0.4014173655123891    0.0166947031224736    0.4957400468441427 Bi
   0.4827494095951277    0.3580073095668180    0.5321141966794219 Bi
   0.6149651073631928    0.4089150244095686    0.5026571376478022 Bi
   0.7003056653607068    0.5829141888875573    0.4906284583953435 Bi
   0.8071656138480682    0.6945202809664492    0.4914975964970181 Bi
   0.9470107091176447    0.0128071833970815    0.5071012664494590 Bi
   0.5822162519275326    0.0650574643112253    0.4960449654599236 Bi
   0.7546695530217247    0.3241638923954989    0.5082993325067398 Bi
   0.9174911687515721    0.3693698631258484    0.4915816291864065 Bi
   0.9624821663325677    0.6805979463078182    0.5331706076317336 Bi
   0.8560329147094570    0.1141208450461436    0.4627512139242263 Bi
   0.0485359303777674    0.2831382606996963    0.4875936778414297 Bi
   0.1180967272129486    0.7219283138488115    0.9611418918850784 Bi
   0.2203855633413554    0.8908929692664803    0.9706375857859715 Bi
   0.0965047615238024    0.3943431930540240    0.9676340173738306 Bi
   0.2135972505138915    0.5578894632123570    0.9615140366523701 Bi
   0.3646504319884024    0.7140279233548414    0.9577349665638730 Bi
   0.4768668802627920    0.9015041442937871    0.9698644850435979 Bi
   0.0924197342206186    0.0550039103976553    0.9686640180523346 Bi
   0.2150031840258949    0.2322387327901000    0.9564624715531340 Bi
   0.3350549408323655    0.3854967569511042    0.9555093007620710 Bi
   0.4715553883512980    0.5621739582298122    0.9647961134064840 Bi
   0.6370189663750101    0.7382385040108014    0.9569978798312374 Bi
   0.7459717810747172    0.9133024246284782    0.9523496716410658 Bi
   0.3551965277324183    0.0635851808322973    0.9573892320703893 Bi
   0.4494525832748372    0.2232376546164865    0.9620998645441066 Bi
   0.5893274962619552    0.3837288342193793    0.9592163428310920 Bi
   0.7235634850430672    0.5530045930969144    0.9716171668508423 Bi
   0.8811585612264916    0.7333126992295869    0.9640710313437610 Bi
   0.9994842660062211    0.8846345136995818    0.9555693241116341 Bi
   0.5992742367550402    0.0595594838684442    0.9621598878936697 Bi
   0.7254481898310670    0.2350987014386943    0.9572763881732106 Bi
   0.8424686662203011    0.3927162675044021    0.9583616103333127 Bi
  -0.0263875548273281    0.5614052961725405    0.9515789718326747 Bi
   0.8637911472546855    0.0763003976802780    0.9634059726306011 Bi
   0.9701897650178202    0.2215747975269094    0.9618189552681511 Bi
   0.9703304146288647    0.6685722511632837    0.7082491145715613 Bi
   0.0617581190128625    0.8471838428145221    0.7172478151380712 Bi
   0.9394493860278789    0.3508005342428713    0.7037449624203412 Bi
   0.0662189620767579    0.5113149101563681    0.7049142172698317 Bi
   0.2135809351590103    0.6709782998514299    0.7116032193451510 Bi
   0.3382049295213238    0.8597371403178941    0.7104387663636256 Bi
   0.9592472252785382    0.0169671915476283    0.7043331912460602 Bi
   0.0810659350186420    0.1798519120241260    0.6965685707465690 Bi
   0.2289263703224370    0.3385615240067033    0.7045588790404177 Bi
   0.3304163166601096    0.5081538442995408    0.7114351539663741 Bi
   0.4608699561010060    0.6804023695713527    0.7068541719277133 Bi
   0.5624741099228470    0.8478933770212344    0.7060954767892348 Bi
   0.1979767047112612    0.0294525375058190    0.7061194861290602 Bi
   0.3630200216971716    0.1834700816487392    0.6972768462714143 Bi
   0.4728482395760213    0.3520244807494500    0.7027893906952957 Bi
   0.5965006264252377    0.5289668476964359    0.7137808664673027 Bi
   0.7187926502364292    0.6692544955928147    0.7095624254600034 Bi
   0.8322912603651027    0.8419442055957232    0.7098673440757842 Bi
   0.4703458016963130    0.0076127107595177    0.6973080584131872 Bi
   0.6002700360012371    0.1892850783364425    0.7002588062777125 Bi
   0.7049639804785091    0.3478364096113685    0.7100546169264214 Bi
   0.8185301024204842    0.5215986078575000    0.7022996001628602 Bi
   0.7032142993171123    0.0230099669088710    0.7079682052956057 Bi
   0.8417822961184027    0.1733346584036254    0.7000979437008833 Bi
   0.1008986553728405    0.6442070284366301    0.8088026306937609 Bi
   0.2036887667150107    0.8622023168565998    0.8430759632943292 Bi
   0.1159543523375150    0.3597383910993482    0.8236380017717934 Bi
   0.2428236770905469    0.5706792721179664    0.8146561077431609 Bi
   0.3808358266289883    0.6608355993324010    0.8263510571720485 Bi
   0.4361386910933409    0.9430664749408210    0.8302573767616193 Bi
   0.1845131613436133    0.9836782116827082    0.8125264793006599 Bi
   0.2385119226143590    0.2738265338958363    0.8181854806974753 Bi
   0.4093511287722015    0.3078923627511825    0.8180486274604711 Bi
   0.5164558075827806    0.6214746440446542    0.8612726419478989 Bi
   0.6330920292346405    0.7465118547929149    0.8211722425717384 Bi
   0.7770047112556314    0.9334513767806295    0.8271361625843346 Bi
   0.3378364275403866    0.0373963187455071    0.8410927918247622 Bi
   0.5311446903618504    0.2216621248138894    0.8278948577228130 Bi
   0.5777210903585424    0.3776886968699308    0.8114988795561384 Bi
   0.6881929208575328    0.6048733629260644    0.8331024835309134 Bi
   0.8059897830997340    0.7175983358693875    0.8256163713733954 Bi
   0.0530146640721877    0.9048653351832771    0.8323725996002254 Bi
   0.6482990651807993    0.0169704663208900    0.8330544648512629 Bi
   0.6962437045937345    0.2735304398134198    0.8164183932863355 Bi
   0.8265302522967097    0.3749483484113142    0.8142695573719743 Bi
   0.9859875293303667    0.5626469810342871    0.8378995496280016 Bi
   0.9257276099743528   -0.0122424669412776    0.8270785401687540 Bi
   0.9655539538377851    0.3050142009178007    0.8363293388034293 Bi
   0.9622740049082213    0.6901129819516785    0.8541850848314801 Bi
   0.0855909143051738    0.7727691687374680    0.8329560265579793 Bi
   0.9736441194650792    0.4257391720418052    0.8465981334466959 Bi
   0.1253317432050907    0.4929034071514226    0.8479642648827536 Bi
   0.2350626315530975    0.7112216246013703    0.8266415701839341 Bi
   0.3652676024816668    0.8002317811741927    0.8308864214650413 Bi
   0.0664755069673035    0.0642242164479581    0.8349295942916162 Bi
   0.0796464991439783    0.2013057703551605    0.8489702562214322 Bi
   0.2745182230418157    0.4357067631572544    0.8264999150789651 Bi
   0.4245649158996903    0.5388230055550616    0.8137197434899757 Bi
   0.4954759490009011    0.7520198414873291    0.8620937613699230 Bi
   0.6165572609602193    0.8826923912235167    0.8306391252648411 Bi
   0.2172164463052950    0.1250071919933613    0.8279524801383937 Bi
   0.3738494791491734    0.1668929064999928    0.8326006883285653 Bi
   0.4247567619691553    0.4374260191196727    0.8539305858293323 Bi
   0.5865313819943856    0.5008083459415894    0.8474312575386327 Bi
   0.7459492771369500    0.8118481296610086    0.8648764438556714 Bi
   0.9062335738835502    0.8251700892216522    0.8213331051485676 Bi
   0.5095139053800558    0.0800431906206855    0.8262334114069045 Bi
   0.6771153574916481    0.1476540684168359    0.8463172241707402 Bi
   0.7124465397860900    0.3951154937482532    0.8600865805605308 Bi
   0.8201897678308122    0.4982931381447182    0.8448574563093639 Bi
   0.7938095267832584    0.0812357538835059    0.8183247348684617 Bi
   0.8415009968963132    0.2094435819106073    0.8268816635821867 Bi
   0.9777960959831202    0.6601624514952638    0.9970070437160619 Se
   0.1054241972578164    0.8307508486552166   -0.0000671061048116 Se
  -0.0172470179047517    0.3331395001104099    0.0055123763585025 Se
   0.1000074994372609    0.5065210059648630    0.9966084886749625 Se
   0.2393490690992973    0.6699412883185426    0.9986420797581625 Se
   0.3500149960615296    0.8459603511375630    0.0040317683901579 Se
  -0.0181380050607980    1.0176221461999782    1.0043803119764014 Se
   0.0995546076896968    0.1638801150991836    0.0079836817160570 Se
   0.2291345317467832    0.3329684841734075    0.0038398857462744 Se
   0.3572916443385409    0.4921711314637258    0.0065260026672456 Se
   0.4884243401015614    0.6711056521449424    0.9942267621642960 Se
   0.6216037690045051    0.8347851873818438    0.0017753706333793 Se
   0.2219220196924083    0.9947396680335054    0.0121604185000799 Se
   0.3265737692863669    0.1692821264922107    0.9980802612062514 Se
   0.4978101699457998    0.3360763349647314    1.0071461879242720 Se
   0.6044838983481379    0.4941860266789410    0.0107697255093810 Se
   0.7326663278698836    0.6758495250782819   -0.0054275033422202 Se
   0.8584070801438924    0.8532558182373486    0.9965820784011546 Se
   0.4788517275738556   -0.0018207739335326    1.0073550691807520 Se
   0.5993642525061088    0.1842205505212234    0.9960442691890687 Se
   0.7243623748338014    0.3357902471339480    0.9982507275190107 Se
   0.8517459145648130    0.5045152073420416    1.0023683292990440 Se
   0.7602842854946312    0.0013560290281360    1.0013719416962954 Se
   0.8303559217171269    0.1806069291928070    1.0005100063965684 Se
   0.0998640368339953    0.7262719367168260    0.0694791879599499 Se
   0.2065687081507631    0.8803500186821266    0.0728930759897046 Se
   0.1198689123121125    0.3930405610232393    0.0793864019454480 Se
   0.2215023212530507    0.5644617512168397    0.0791698377002241 Se
   0.3706280404578043    0.7097297834487957    0.0686165323800281 Se
   0.4896136732125558    0.8905791368288961    0.0738661745328227 Se
   0.0842665575675764    0.0737210589070308    0.0809750999616859 Se
   0.2351509595088336    0.2244948036853025    0.0740443238343261 Se
   0.3568899490493971    0.4018174081943469    0.0773710579605151 Se
   0.5055790918614678    0.5521586100042959    0.0799078848064528 Se
   0.6186726311103325    0.7271133715132477    0.0777307178710976 Se
   0.7429956353050102    0.8901652418749806    0.0770217220660575 Se
   0.3706105999060348    0.0847415805920563    0.0747494781449942 Se
   0.4817890540509141    0.2197650304701733    0.0656458567634478 Se
   0.6128328592597543    0.3920585838743342    0.0746824920868817 Se
   0.7331782924540865    0.5682595785412295    0.0689300943581461 Se
   0.8580807730462686    0.7288644655490440    0.0770740624268766 Se
  -0.0243216370804584    0.8946362170365075    0.0821969352653937 Se
   0.5870320946097050    0.0652216578039325    0.0740337597248030 Se
   0.7186069927498501    0.2303457319129611    0.0798507425776687 Se
   0.8510426665095893    0.4084920328632594    0.0874585820881009 Se
  -0.0225941785576067    0.5716935421698693    0.0643183803645088 Se
   0.8514702413271653    0.0446647234829215    0.0744844150333233 Se
  -0.0475408625095480    0.2346843516551591    0.0787179819247126 Se
   0.1040452684711337    0.7103619966201611    0.2513537786307176 Se
   0.2515056962811174    0.8939630691993703    0.2563453203803905 Se
   0.1101100796993834    0.4124931690276493    0.2580811956497573 Se
   0.2664359337927399    0.5663674873233300    0.2642083791731654 Se
   0.3706218518749184    0.7491862529566768    0.2569095398662843 Se
   0.5154307532174864    0.8968785270615665    0.2634400802987569 Se
   0.0996671273785326    0.0548456296900041    0.2536874864617335 Se
   0.2422447632914867    0.2274707538869171    0.2550728253696514 Se
   0.3551408304864445    0.3911816723675769    0.2539611929357415 Se
   0.4838301612063955    0.5789799126772613    0.2567534791574201 Se
   0.6129510049330319    0.7253895672546326    0.2523165531577108 Se
   0.7352430287442234    0.9043377328244396    0.2687893612118263 Se
   0.3596112377238910    0.0559822489096028    0.2575457873716539 Se
   0.4739959404021465    0.2509372332850683    0.2541652723242563 Se
   0.6258288833202895    0.4160954196155734    0.2623764665444976 Se
   0.7494430134753016    0.5715889313573412    0.2685252584737484 Se
   0.8803315415135485    0.7516150431258075    0.2533273463643545 Se
   0.9906908523237032    0.9228083636799447    0.2608110575878901 Se
   0.6014965006095473    0.0610199417772604    0.2618722704081670 Se
   0.7438001510801863    0.2206828766427024    0.2622780282512139 Se
   0.8624184070508888    0.3910638714960779    0.2586310095317559 Se
  -0.0175310175993733    0.5666449333913393    0.2547991188956434 Se
   0.8480046349110225    0.0661513295465735    0.2699274039195440 Se
   0.9801702614175557    0.2210294568129042    0.2519348046544890 Se
   0.1010764364812010    0.6184454787775363    0.3241981156605769 Se
   0.2347728933543452    0.7968160107303404    0.3279867894850040 Se
   0.1096076792887315    0.2838364241659164    0.3217155499226443 Se
   0.2346778142172790    0.4552162248641253    0.3247623351464707 Se
   0.3593316262971340    0.6344827711677136    0.3312592625031879 Se
   0.4790739539593062    0.7922176832753008    0.3328846948093585 Se
   0.1340598954680839    0.9518992661551501    0.3277058802090484 Se
   0.2580672819355772    0.1031280679679190    0.3372039750439239 Se
   0.3596399302445441    0.2809136890298052    0.3258475573065727 Se
   0.4902482842575898    0.4543238491502987    0.3306542271395911 Se
   0.5998762170903117    0.6414371160527339    0.3331031798017683 Se
   0.7416116431323299    0.7753526009772924    0.3308559055941234 Se
   0.3474669877078429    0.9559654429551554    0.3316338082044620 Se
   0.4863905467258542    0.1423102752151287    0.3364164686976552 Se
   0.6007763746009981    0.2897096390449397    0.3310623859166207 Se
   0.7444752692132010    0.4521929723820633    0.3303733178636355 Se
   0.8629191196662082    0.6282743468589808    0.3356649763611243 Se
   0.9832701788449820    0.8009504119732987    0.3245750622958336 Se
   0.6033249455531291    0.9797894184343808    0.3362748135926861 Se
   0.7205535833667095    0.1221790614181451    0.3335017348428678 Se
   0.8501875168744372    0.2951339370893315    0.3370863292787801 Se
  -0.0052438113186593    0.4550479379048410    0.3272905186300712 Se
   0.8566067651225195    0.9479877314258386    0.3325893799295076 Se
  -0.0252931883337111    0.1235076187372520    0.3357009903708622 Se
   1.0005081951746269    0.6852463050210233    0.3974001918538327 Se
   0.1137641565943261    0.8410118048753642    0.3982549243516121 Se
   0.0163093350778386    0.3426226976808920    0.4024973746987368 Se
   0.1251387719387373    0.5063299775245944    0.3976354833841202 Se
   0.2173469691443446    0.6768819883149723    0.3970784667001741 Se
   0.3622976452948458    0.8478069593934938    0.4101035335553813 Se
   0.0184253803460847    0.0132503693785049    0.4026582372755662 Se
   0.1218492588356226    0.1778438392532062    0.3963605874393987 Se
   0.2351413953352825    0.3507259421852426    0.3955610764232173 Se
   0.3458669577325977    0.4998168173706709    0.4038466995969168 Se
   0.4970028411784029    0.6691180467069084    0.4051167936736734 Se
   0.6092659851236594    0.8548568184986485    0.4028118970504478 Se
   0.2192626168467741    0.9957539380854084    0.4051504067494288 Se
   0.3826316408628077    0.1939275242645917    0.4111047230260949 Se
   0.4785738039424311    0.3559578473005066    0.4077362126486100 Se
   0.5952966657546946    0.5189696926557069    0.4046222012732729 Se
   0.7336565011316386    0.6883436947310945    0.4001852752735636 Se
   0.8765677579219909    0.8287268568476078    0.4035009651034330 Se
   0.4730715911583604    0.0027128312666254    0.4054265141574193 Se
   0.6106949851718741    0.1975952703177508    0.4133063794880719 Se
   0.7223313944503151    0.3300366524449025    0.4073184501356504 Se
   0.8669079426354374    0.4947409188149596    0.4020291925721441 Se
   0.7448409582019174    0.0077041315130749    0.3948503999643893 Se
   0.8723707735284155    0.1945838434058006    0.4022236682247288 Se
   0.9759001392262370    0.6699822229843145    0.5981254755950103 Se
   0.0924793696557016    0.8196848440082224    0.5886729985058028 Se
   0.9807553637995019    0.3579904808708896    0.5822553019705090 Se
   0.1056644267934809    0.5009993743818582    0.5951675249285374 Se
   0.2549741156894810    0.6675579811113806    0.5944280372619192 Se
   0.3536803249253558    0.8448369219769352    0.5958493901795749 Se
   0.9547464377251063    1.0052553288406780    0.5877510398565126 Se
   0.0881968702986109    0.1687986426064830    0.5884641172493229 Se
   0.2189064920316088    0.3609259512363520    0.5933308104319045 Se
   0.3363432912695354    0.5008128942377863    0.5946969418679622 Se
   0.4682703760357367    0.6784147641333188    0.6012418879043300 Se
   0.6164559932402672    0.8459558028413661    0.5969922347552576 Se
   0.2320583558611815    0.0069817256281254    0.5894485001821589 Se
   0.3605338991723445    0.2095427347676992    0.5884209004376374 Se
   0.4750029916172270    0.3451419989443404    0.5960438658321597 Se
   0.5919604569807131    0.5200931218163348    0.5893476609548928 Se
   0.7104549412936962    0.6798383808429403    0.5941519298539286 Se
   0.8543788752835707    0.8261889075697521    0.5958157771038196 Se
   0.4764004861525676    1.0103767103583581    0.5889875208575138 Se
   0.6183575759815922    0.1687772656143577    0.5855229731207278 Se
   0.7204804455689663    0.3557472611865913    0.5904953073985405 Se
   0.8433463197932203    0.5192789767970943    0.5786130851190160 Se
   0.7333020641118059    1.0228617834187770    0.5918662407025632 Se