Bi12 Se9
1.0
   2.1363683600000001   -3.7002985399999999    0.0000000000000000
   2.1363683600000001    3.7002985399999999   -0.0000000000000000
  -0.0000000000000000    0.0000000000000000   39.7008408299999971
Bi Se
12 9
direct
   0.5521290400000000    0.3285228300000000    0.1741017100000000 Bi
   0.2187957100000000    0.6618561600000000    0.9296557400000000 Bi
   0.5521290400000000    0.3285228300000000    0.0319183700000000 Bi
   0.2187957100000000    0.6618561600000000    0.0762928100000000 Bi
   0.2187957100000000    0.6618561600000000    0.5059504700000000 Bi
   0.8854623700000001    0.9951894900000000    0.2659582300000000 Bi
   0.2187957100000000    0.6618561600000000    0.3637671200000000 Bi
   0.8854623700000001    0.9951894900000000    0.4081415700000000 Bi
   0.8854623700000001    0.9951894900000000    0.8377992300000000 Bi
   0.5521290400000000    0.3285228300000000    0.5978069900000000 Bi
   0.8854623700000001    0.9951894900000000    0.6956158800000000 Bi
   0.5521290400000000    0.3285228300000000    0.7399903300000000 Bi
   0.5521290400000000    0.3285228300000000    0.8837274899999999 Se
   0.8854623700000001    0.9951894900000000    0.9680816300000000 Se
   0.8854623700000001    0.9951894900000000    0.1356758200000000 Se
   0.2187957100000000    0.6618561600000000    0.2200299700000000 Se
   0.5521290400000000    0.3285228300000000    0.3043841200000000 Se
   0.5521290400000000    0.3285228300000000    0.4675245800000000 Se
   0.8854623700000001    0.9951894900000000    0.5518787300000000 Se
   0.2187957100000000    0.6618561600000000    0.6362328800000000 Se
   0.2187957100000000    0.6618561600000000    0.7993733400000000 Se
