Bi2 Se4
1.0
  12.5004239100096033   -2.1100323303852990   -0.0021792660636178
  12.5004239100096033    2.1100323303852990   -0.0021792660636178
  12.1448913503690044    0.0000000000000000    3.6351688377887714
Se Bi
4 2
direct
   0.2545929700000000    0.2545929700000000    0.2545929700000000 Se
   0.7454070300000000    0.7454070300000000    0.7454070300000000 Se
   0.3222368700000000    0.3222368700000000    0.3222368700000000 Se
   0.6777631300000000    0.6777631300000000    0.6777631300000000 Se
   0.1136347500000000    0.1136347500000000    0.1136347500000000 Bi
   0.8863652500000000    0.8863652500000000    0.8863652500000000 Bi
