Bi288 Se216
1.0
  17.1408839999999998    0.0000000000000000    0.0000000000000000
   0.0000000000000000   22.2666620000000002    0.0000000000000000
   0.0000000000000000    0.0000000000000000   41.6504580000000004
Bi Se
288 216
direct
   0.0000067091055514    0.6667770858514851    0.2953196817187461 Bi
   0.1249947202256313    0.8332187375009331    0.2952452527652877 Bi
   0.0000067091055514    0.3334455788658399    0.2953196817187461 Bi
   0.1249947202256313    0.4998863323115068    0.2952452527652877 Bi
   0.2500267780821573    0.6667636127947693    0.2953244835867111 Bi
   0.3749765764706184    0.8332142464820278    0.2952500546332528 Bi
   0.0000067091055514    0.0001124102031997    0.2953196817187461 Bi
   0.1249947202256313    0.1665512325107374    0.2952452527652877 Bi
   0.2500267780821573    0.3334303094015619    0.2953244835867111 Bi
   0.3749765764706184    0.4998818412926014    0.2952500546332528 Bi
   0.5000068841256963    0.6667770858514851    0.2953196817187461 Bi
   0.6249969371474656    0.8332187375009331    0.2952452527652877 Bi
   0.2500267780821573    0.0000968263675983    0.2953244835867111 Bi
   0.3749765764706184    0.1665485378993942    0.2952500546332528 Bi
   0.5000068841256963    0.3334455788658399    0.2953196817187461 Bi
   0.6249969371474656    0.4998863323115068    0.2952452527652877 Bi
   0.7500254946010952    0.6667636127947693    0.2953244835867111 Bi
   0.8749782099919701    0.8332142464820278    0.2952500546332528 Bi
   0.5000068841256963    0.0001124102031997    0.2953196817187461 Bi
   0.6249969371474656    0.1665512325107374    0.2952452527652877 Bi
   0.7500254946010952    0.3334303094015619    0.2953244835867111 Bi
   0.8749782099919701    0.4998818412926014    0.2952500546332528 Bi
   0.7500254946010952    0.0000968263675983    0.2953244835867111 Bi
   0.8749782099919701    0.1665485378993942    0.2952500546332528 Bi
   0.1249918032232177    0.6109896490098067    0.0380286334426383 Bi
   0.2500267780821573    0.7778938756065009    0.0380951393139542 Bi
   0.1249918032232177    0.2776572438203805    0.0380286334426383 Bi
   0.2500267780821573    0.4445601231114031    0.0380951393139542 Bi
   0.3749771598711011    0.6109986310476173    0.0380207103604959 Bi
   0.5000098011281099    0.7778714205119743    0.0381047430498844 Bi
   0.1249918032232177    0.9443220541992330    0.0380286334426383 Bi
   0.2500267780821573    0.1112268197181957    0.0380951393139542 Bi
   0.3749771598711011    0.2776630821449573    0.0380207103604959 Bi
   0.5000098011281099    0.4445385662206576    0.0381047430498844 Bi
   0.6249911031426384    0.6109896490098067    0.0380286334426383 Bi
   0.7500254946010952    0.7778938756065009    0.0380951393139542 Bi
   0.3749771598711011    0.9443310362370436    0.0380207103604959 Bi
   0.5000098011281099    0.1112052628274503    0.0381047430498844 Bi
   0.6249911031426384    0.2776572438203805    0.0380286334426383 Bi
   0.7500254946010952    0.4445601231114031    0.0380951393139542 Bi
   0.8749782099919701    0.6109986310476173    0.0380207103604959 Bi
   0.0000100344883029    0.7778714205119743    0.0381047430498844 Bi
   0.6249911031426384    0.9443220541992330    0.0380286334426383 Bi
   0.7500254946010952    0.1112268197181957    0.0380951393139542 Bi
   0.8749782099919701    0.2776630821449573    0.0380207103604959 Bi
   0.0000100344883029    0.4445385662206576    0.0381047430498844 Bi
   0.8749782099919701    0.9443310362370436    0.0380207103604959 Bi
   0.0000100344883029    0.1112052628274503    0.0381047430498844 Bi
   0.0000013418211103    0.6667770858514851    0.1480593562740655 Bi
   0.1249953036261140    0.8332187375009331    0.1479938107763425 Bi
   0.0000013418211103    0.3334442315601683    0.1480593562740655 Bi
   0.1249953036261140    0.4998818412926014    0.1479938107763425 Bi
   0.2499987748589863    0.6667725948325798    0.1480624774882427 Bi
   0.3750039962933067    0.8332142464820278    0.1479950112433338 Bi
   0.0000013418211103    0.0001109281669610    0.1480593562740655 Bi
   0.1249953036261140    0.1665503343069563    0.1479938107763425 Bi
   0.2499987748589863    0.3334406387450441    0.1480624774882427 Bi
   0.3750039962933067    0.4998818412926014    0.1479950112433338 Bi
   0.5000016335213516    0.6667770858514851    0.1480593562740655 Bi
   0.6249969371474656    0.8332187375009331    0.1479938107763425 Bi
   0.2499987748589863    0.0001071557110805    0.1480624774882427 Bi
   0.3750039962933067    0.1665480887975037    0.1479950112433338 Bi
   0.5000016335213516    0.3334442315601683    0.1480593562740655 Bi
   0.6249969371474656    0.4998818412926014    0.1479938107763425 Bi
   0.7499963245769589    0.6667725948325798    0.1480624774882427 Bi
   0.8750015460112792    0.8332142464820278    0.1479950112433338 Bi
   0.5000016335213516    0.0001109281669610    0.1480593562740655 Bi
   0.6249969371474656    0.1665503343069563    0.1479938107763425 Bi
   0.7499963245769589    0.3334406387450441    0.1480624774882427 Bi
   0.8750015460112792    0.4998818412926014    0.1479950112433338 Bi
   0.7499963245769589    0.0001071557110805    0.1480624774882427 Bi
   0.8750015460112792    0.1665480887975037    0.1479950112433338 Bi
   0.1249947202256313    0.6109941400287120    0.1852733528164324 Bi
   0.2499976080580208    0.7778893845875957    0.1853384181273589 Bi
   0.1249947202256313    0.2776608366355047    0.1852733528164324 Bi
   0.2499976080580208    0.4445547338887167    0.1853384181273589 Bi
   0.3750045796937894    0.6109941400287120    0.1852726325362377 Bi
   0.5000022169218343    0.7778848935686904    0.1853412992481379 Bi
   0.1249947202256313    0.9443265452181383    0.1852733528164324 Bi
   0.2499976080580208    0.1112214304955094    0.1853384181273589 Bi
   0.3750045796937894    0.2776612857373952    0.1852726325362377 Bi
   0.5000022169218343    0.4445515901754830    0.1853412992481379 Bi
   0.6249969371474656    0.6109941400287120    0.1852733528164324 Bi
   0.7499963245769589    0.7778893845875957    0.1853384181273589 Bi
   0.3750045796937894    0.9443265452181383    0.1852726325362377 Bi
   0.5000022169218343    0.1112182867822757    0.1853412992481379 Bi
   0.6249969371474656    0.2776608366355047    0.1852733528164324 Bi
   0.7499963245769589    0.4445547338887167    0.1853384181273589 Bi
   0.8750073800161066    0.6109941400287120    0.1852726325362377 Bi
   0.0000025086220757    0.7778848935686904    0.1853412992481379 Bi
   0.6249969371474656    0.9443265452181383    0.1852733528164324 Bi
   0.7499963245769589    0.1112214304955094    0.1853384181273589 Bi
   0.8750073800161066    0.2776612857373952    0.1852726325362377 Bi
   0.0000025086220757    0.4445515901754830    0.1853412992481379 Bi
   0.8750073800161066    0.9443265452181383    0.1852726325362377 Bi
   0.0000025086220757    0.1112182867822757    0.1853412992481379 Bi
   0.1249935534246659    0.6109941400287120    0.6285765212953961 Bi
   0.2500361124898809    0.7778759115308796    0.6286581530508021 Bi
   0.1249935534246659    0.2776630821449573    0.6285765212953961 Bi
   0.2500361124898809    0.4445408117301103    0.6286581530508021 Bi
   0.3749689922643429    0.6109941400287120    0.6285837240973438 Bi
   0.5000068841256963    0.7778938756065009    0.6286533511828371 Bi
   0.1249935534246659    0.9443310362370436    0.6285765212953961 Bi
   0.2500361124898809    0.1112075083369030    0.6286581530508021 Bi
   0.3749689922643429    0.2776585911260521    0.6285837240973438 Bi
   0.5000068841256963    0.4445592249076220    0.6286533511828371 Bi
   0.6249911031426384    0.6109941400287120    0.6285765212953961 Bi
   0.7500371626107498    0.7778759115308796    0.6286581530508021 Bi
   0.3749689922643429    0.9443265452181383    0.6285837240973438 Bi
   0.5000068841256963    0.1112259215144147    0.6286533511828371 Bi
   0.6249911031426384    0.2776630821449573    0.6285765212953961 Bi
   0.7500371626107498    0.4445408117301103    0.6286581530508021 Bi
   0.8749665419823155    0.6109941400287120    0.6285837240973438 Bi
   0.0000067674455997    0.7778938756065009    0.6286533511828371 Bi
   0.6249911031426384    0.9443310362370436    0.6285765212953961 Bi
   0.7500371626107498    0.1112075083369030    0.6286581530508021 Bi
   0.8749665419823155    0.2776585911260521    0.6285837240973438 Bi
   0.0000067674455997    0.4445592249076220    0.6286533511828371 Bi
   0.8749665419823155    0.9443265452181383    0.6285837240973438 Bi
   0.0000067674455997    0.1112259215144147    0.6286533511828371 Bi
   0.1249923866237004    0.7221019477459173    0.3713620628133309 Bi
   0.2500238610797436    0.8890016833237062    0.3714292889648417 Bi
   0.1249923866237004    0.3887686443527099    0.3713620628133309 Bi
   0.2500238610797436    0.5556692781342799    0.3714292889648417 Bi
   0.3749789100725493    0.7221064387648226    0.3713548600113833 Bi
   0.5000098011281099    0.8889837192480848    0.3714364917667892 Bi
   0.1249923866237004    0.0554353409595026    0.3713620628133309 Bi
   0.2500238610797436    0.2223368729448536    0.3714292889648417 Bi
   0.3749789100725493    0.3887740335753963    0.3713548600113833 Bi
   0.5000098011281099    0.5556513140586586    0.3714364917667892 Bi
   0.6249911031426384    0.7221019477459173    0.3713620628133309 Bi
   0.7500254946010952    0.8890016833237062    0.3714292889648417 Bi
   0.3749789100725493    0.0554407301821890    0.3713548600113833 Bi
   0.5000098011281099    0.2223171124616703    0.3714364917667892 Bi
   0.6249911031426384    0.3887686443527099    0.3713620628133309 Bi
   0.7500254946010952    0.5556692781342799    0.3714292889648417 Bi
   0.8749782099919701    0.7221064387648226    0.3713548600113833 Bi
   0.0000095677679168    0.8889837192480848    0.3714364917667892 Bi
   0.6249911031426384    0.0554353409595026    0.3713620628133309 Bi
   0.7500254946010952    0.2223368729448536    0.3714292889648417 Bi
   0.8749782099919701    0.3887740335753963    0.3713548600113833 Bi
   0.0000095677679168    0.5556513140586586    0.3714364917667892 Bi
   0.8749782099919701    0.0554407301821890    0.3713548600113833 Bi
   0.0000095677679168    0.2223171124616703    0.3714364917667892 Bi
   0.1249958870265968    0.6109941400287120    0.4813272401470352 Bi
   0.2499993582594690    0.7778848935686904    0.4813968672325284 Bi
   0.1249958870265968    0.2776621839411763    0.4813272401470352 Bi
   0.2499993582594690    0.4445506919717019    0.4813968672325284 Bi
   0.3750039962933067    0.6109941400287120    0.4813272401470352 Bi
   0.5000010501208689    0.7778893845875957    0.4813920653645634 Bi
   0.1249958870265968    0.9443310362370436    0.4813272401470352 Bi
   0.2499993582594690    0.1112173885784946    0.4813968672325284 Bi
   0.3750039962933067    0.2776585911260521    0.4813272401470352 Bi
   0.5000010501208689    0.4445560811943883    0.4813920653645634 Bi
   0.6249969371474656    0.6109941400287120    0.4813272401470352 Bi
   0.7499963245769589    0.7778848935686904    0.4813968672325284 Bi
   0.3750039962933067    0.9443265452181383    0.4813272401470352 Bi
   0.5000010501208689    0.1112227778011810    0.4813920653645634 Bi
   0.6249969371474656    0.2776621839411763    0.4813272401470352 Bi
   0.7499963245769589    0.4445506919717019    0.4813968672325284 Bi
   0.8750015460112792    0.6109941400287120    0.4813272401470352 Bi
   0.0000008751007241    0.7778893845875957    0.4813920653645634 Bi
   0.6249969371474656    0.9443310362370436    0.4813272401470352 Bi
   0.7499963245769589    0.1112173885784946    0.4813968672325284 Bi
   0.8750015460112792    0.2776585911260521    0.4813272401470352 Bi
   0.0000008751007241    0.4445560811943883    0.4813920653645634 Bi
   0.8750015460112792    0.9443265452181383    0.4813272401470352 Bi
   0.0000008751007241    0.1112227778011810    0.4813920653645634 Bi
   0.1249929700241831    0.7221019477459173    0.5186065420937268 Bi
   0.2499964412570554    0.8890016833237062    0.5186713673112551 Bi
   0.1249929700241831    0.3887708898621626    0.5186065420937268 Bi
   0.2499964412570554    0.5556647871153746    0.5186713673112551 Bi
   0.3750063298952376    0.7221019477459173    0.5186065420937268 Bi
   0.5000039671232825    0.8889971923048009    0.5186737682452376 Bi
   0.1249929700241831    0.0554371373670647    0.5186065420937268 Bi
   0.2499964412570554    0.2223332801297294    0.5186713673112551 Bi
   0.3750063298952376    0.3887708898621626    0.5186065420937268 Bi
   0.5000039671232825    0.5556647871153746    0.5186737682452376 Bi
   0.6249911031426384    0.7221019477459173    0.5186065420937268 Bi
   0.7499963245769589    0.8890016833237062    0.5186713673112551 Bi
   0.3750063298952376    0.0554375864689553    0.5186065420937268 Bi
   0.5000039671232825    0.2223314837221673    0.5186737682452376 Bi
   0.6249911031426384    0.3887708898621626    0.5186065420937268 Bi
   0.7499963245769589    0.5556647871153746    0.5186713673112551 Bi
   0.8750073800161066    0.7221019477459173    0.5186065420937268 Bi
   0.0000039087832343    0.8889971923048009    0.5186737682452376 Bi
   0.6249911031426384    0.0554371373670647    0.5186065420937268 Bi
   0.7499963245769589    0.2223332801297294    0.5186713673112551 Bi
   0.8750073800161066    0.3887708898621626    0.5186065420937268 Bi
   0.0000039087832343    0.5556647871153746    0.5186737682452376 Bi
   0.8750073800161066    0.0554375864689553    0.5186065420937268 Bi
   0.0000039087832343    0.2223314837221673    0.5186737682452376 Bi
   0.1249941368251486    0.7221064387648226    0.9619101907594870 Bi
   0.2500296950845709    0.8889837192480848    0.9619918225148929 Bi
   0.1249941368251486    0.3887735844735057    0.9619101907594870 Bi
   0.2500296950845709    0.5556513140586586    0.9619918225148929 Bi
   0.3749742428686875    0.7221019477459173    0.9619173935614347 Bi
   0.5000068841256963    0.8890016833237062    0.9619870206469279 Bi
   0.1249941368251486    0.0554402810802984    0.9619101907594870 Bi
   0.2500296950845709    0.2223189088692324    0.9619918225148929 Bi
   0.3749742428686875    0.3887704407602721    0.9619173935614347 Bi
   0.5000068841256963    0.5556692781342799    0.9619870206469279 Bi
   0.6249969371474656    0.7221064387648226    0.9619101907594870 Bi
   0.7500313286059225    0.8889837192480848    0.9619918225148929 Bi
   0.3749742428686875    0.0554366882651742    0.9619173935614347 Bi
   0.5000068841256963    0.2223355256391820    0.9619870206469279 Bi
   0.6249969371474656    0.3887735844735057    0.9619101907594870 Bi
   0.7500313286059225    0.5556513140586586    0.9619918225148929 Bi
   0.8749723759871427    0.7221019477459173    0.9619173935614347 Bi
   0.0000067091055514    0.8890016833237062    0.9619870206469279 Bi
   0.6249969371474656    0.0554402810802984    0.9619101907594870 Bi
   0.7500313286059225    0.2223189088692324    0.9619918225148929 Bi
   0.8749723759871427    0.3887704407602721    0.9619173935614347 Bi
   0.0000067091055514    0.5556692781342799    0.9619870206469279 Bi
   0.8749723759871427    0.0554366882651742    0.9619173935614347 Bi
   0.0000067091055514    0.2223355256391820    0.9619870206469279 Bi
   0.0000113179693649    0.6667591217758639    0.7047725621648626 Bi
   0.1249894696212868    0.8332097554631225    0.7046957322774218 Bi
   0.0000113179693649    0.3334258183826566    0.7047725621648626 Bi
   0.1249894696212868    0.4998773502736962    0.7046957322774218 Bi
   0.2500314452860191    0.6667860678892956    0.7047605574949500 Bi
   0.3749736594682048    0.8332187375009331    0.7046861285414917 Bi
   0.0000113179693649    0.0000924700792602    0.7047725621648626 Bi
   0.1249894696212868    0.1665453941861605    0.7046957322774218 Bi
   0.2500314452860191    0.3334518662923073    0.7047605574949500 Bi
   0.3749736594682048    0.4998863323115068    0.7046861285414917 Bi
   0.5000115513295580    0.6667591217758639    0.7047725621648626 Bi
   0.6249911031426384    0.8332097554631225    0.7046957322774218 Bi
   0.2500314452860191    0.0001185179889110    0.7047605574949500 Bi
   0.3749736594682048    0.1665534780201900    0.7046861285414917 Bi
   0.5000115513295580    0.3334258183826566    0.7047725621648626 Bi
   0.6249911031426384    0.4998773502736962    0.7046957322774218 Bi
   0.7500313286059225    0.6667860678892956    0.7047605574949500 Bi
   0.8749723759871427    0.8332187375009331    0.7046861285414917 Bi
   0.5000115513295580    0.0000924700792602    0.7047725621648626 Bi
   0.6249911031426384    0.1665453941861605    0.7046957322774218 Bi
   0.7500313286059225    0.3334518662923073    0.7047605574949500 Bi
   0.8749723759871427    0.4998863323115068    0.7046861285414917 Bi
   0.7500313286059225    0.0001185179889110    0.7047605574949500 Bi
   0.8749723759871427    0.1665534780201900    0.7046861285414917 Bi
   0.1249941368251486    0.7221064387648226    0.8146609096111260 Bi
   0.2499987748589863    0.8889971923048009    0.8147305366966193 Bi
   0.1249941368251486    0.3887717880659436    0.8146609096111260 Bi
   0.2499987748589863    0.5556647871153746    0.8147305366966193 Bi
   0.3750051630942722    0.7221019477459173    0.8146609096111260 Bi
   0.5000016335213516    0.8890016833237062    0.8147257348286543 Bi
   0.1249941368251486    0.0554384846727363    0.8146609096111260 Bi
   0.2499987748589863    0.2223305855183862    0.8147305366966193 Bi
   0.3750051630942722    0.3887686443527099    0.8146609096111260 Bi
   0.5000016335213516    0.5556692781342799    0.8147257348286543 Bi
   0.6249969371474656    0.7221064387648226    0.8146609096111260 Bi
   0.7499963245769589    0.8889971923048009    0.8147305366966193 Bi
   0.3750051630942722    0.0554353409595026    0.8146609096111260 Bi
   0.5000016335213516    0.2223346274354010    0.8147257348286543 Bi
   0.6249969371474656    0.3887717880659436    0.8146609096111260 Bi
   0.7499963245769589    0.5556647871153746    0.8147305366966193 Bi
   0.8750073800161066    0.7221019477459173    0.8146609096111260 Bi
   0.0000018668815447    0.8890016833237062    0.8147257348286543 Bi
   0.6249969371474656    0.0554384846727363    0.8146609096111260 Bi
   0.7499963245769589    0.2223305855183862    0.8147305366966193 Bi
   0.8750073800161066    0.3887686443527099    0.8146609096111260 Bi
   0.0000018668815447    0.5556692781342799    0.8147257348286543 Bi
   0.8750073800161066    0.0554353409595026    0.8146609096111260 Bi
   0.0000018668815447    0.2223346274354010    0.8147257348286543 Bi
   0.0000028586623654    0.6667725948325798    0.8520074377093284 Bi
   0.1249947202256313    0.8332142464820278    0.8519402115578177 Bi
   0.0000028586623654    0.3334410878469346    0.8520074377093284 Bi
   0.1249947202256313    0.4998818412926014    0.8519402115578177 Bi
   0.2499970246575381    0.6667770858514851    0.8520050367753460 Bi
   0.3750051630942722    0.8332142464820278    0.8519378106238352 Bi
   0.0000028586623654    0.0001078293639163    0.8520074377093284 Bi
   0.1249947202256313    0.1665485378993942    0.8519402115578177 Bi
   0.2499970246575381    0.3334451297639494    0.8520050367753460 Bi
   0.3750051630942722    0.4998818412926014    0.8519378106238352 Bi
   0.5000028003223170    0.6667725948325798    0.8520074377093284 Bi
   0.6249969371474656    0.8332142464820278    0.8519402115578177 Bi
   0.2499970246575381    0.0001117814605530    0.8520050367753460 Bi
   0.3750051630942722    0.1665494361031752    0.8519378106238352 Bi
   0.5000028003223170    0.3334410878469346    0.8520074377093284 Bi
   0.6249969371474656    0.4998818412926014    0.8519402115578177 Bi
   0.7499963245769589    0.6667770858514851    0.8520050367753460 Bi
   0.8750073800161066    0.8332142464820278    0.8519378106238352 Bi
   0.5000028003223170    0.0001078293639163    0.8520074377093284 Bi
   0.6249969371474656    0.1665485378993942    0.8519402115578177 Bi
   0.7499963245769589    0.3334451297639494    0.8520050367753460 Bi
   0.8750073800161066    0.4998818412926014    0.8519378106238352 Bi
   0.7499963245769589    0.0001117814605530    0.8520050367753460 Bi
   0.8750073800161066    0.1665494361031752    0.8519378106238352 Bi
  -0.0000033837227998    0.6668354690972540    0.0000111883523586 Se
   0.1249894696212868    0.8332771207467020   -0.0000744769721380 Se
  -0.0000033837227998    0.3335026148059372    0.0000111883523586 Se
   0.1249894696212868    0.4999402245383704   -0.0000744769721380 Se
   0.2499357676068515    0.6668309780783488    0.0000168545565573 Se
   0.3750640865430278    0.8332681387088913   -0.0000702993470084 Se
  -0.0000033837227998    0.0001693563229190    0.0000111883523586 Se
   0.1249894696212868    0.1666082684508347   -0.0000744769721380 Se
   0.2499357676068515    0.3334958782775793    0.0000168545565573 Se
   0.3750640865430278    0.4999357335194651   -0.0000702993470084 Se
   0.4999963829170071    0.6668354690972540    0.0000111883523586 Se
   0.6249911031426384    0.8332771207467020   -0.0000744769721380 Se
   0.2499357676068515    0.0001623503334267    0.0000168545565573 Se
   0.3750640865430278    0.1666015319224768   -0.0000702993470084 Se
   0.4999963829170071    0.3335026148059372    0.0000111883523586 Se
   0.6249911031426384    0.4999402245383704   -0.0000744769721380 Se
   0.7499379845286859    0.6668309780783488    0.0000168545565573 Se
   0.8750657200643794    0.8332681387088913   -0.0000702993470084 Se
   0.4999963829170071    0.0001693563229190    0.0000111883523586 Se
   0.6249911031426384    0.1666082684508347   -0.0000744769721380 Se
   0.7499379845286859    0.3334958782775793    0.0000168545565573 Se
   0.8750657200643794    0.4999357335194651   -0.0000702993470084 Se
   0.7499379845286859    0.0001623503334267    0.0000168545565573 Se
   0.8750657200643794    0.1666015319224768   -0.0000702993470084 Se
   0.1250128056405959    0.7221872771051180    0.0732851485090512 Se
   0.2500005250604345    0.8889163539645053    0.0732928314977953 Se
   0.1250128056405959    0.3888526264062391    0.0732851485090512 Se
   0.2500005250604345    0.5555794577561738    0.0732928314977953 Se
   0.3749969954875140    0.7221782950673075    0.0732837079486617 Se
   0.4999911323126625    0.8889118629456000    0.0732933116845918 Se
   0.1250128056405959    0.0555193230130318    0.0732851485090512 Se
   0.2500005250604345    0.2222479507705286    0.0732928314977953 Se
   0.3749969954875140    0.3888467880816622    0.0732837079486617 Se
   0.4999911323126625    0.5555794577561738    0.0732933116845918 Se
   0.6250144391619475    0.7221872771051180    0.0732851485090512 Se
   0.7500021585817861    0.8889163539645053    0.0732928314977953 Se
   0.3749969954875140    0.0555134846884549    0.0732837079486617 Se
   0.4999911323126625    0.2222461543629665    0.0732933116845918 Se
   0.6250144391619475    0.3888526264062391    0.0732851485090512 Se
   0.7500021585817861    0.5555794577561738    0.0732928314977953 Se
   0.8749957120064520    0.7221782950673075    0.0732837079486617 Se
  -0.0000086926671927    0.8889118629456000    0.0732933116845918 Se
   0.6250144391619475    0.0555193230130318    0.0732851485090512 Se
   0.7500021585817861    0.2222479507705286    0.0732928314977953 Se
   0.8749957120064520    0.3888467880816622    0.0732837079486617 Se
  -0.0000086926671927    0.5555794577561738    0.0732933116845918 Se
   0.8749957120064520    0.0555134846884549    0.0732837079486617 Se
  -0.0000086926671927    0.2222461543629665    0.0732933116845918 Se
   0.1250116388396304    0.7221782950673075    0.2600427587134816 Se
   0.2499999416599517    0.8889118629456000    0.2600499615154293 Se
   0.1250116388396304    0.3888472371835527    0.2600427587134816 Se
   0.2499999416599517    0.5555794577561738    0.2600499615154293 Se
   0.3749975788879967    0.7221872771051180    0.2600427587134816 Se
   0.4999922991136279    0.8889118629456000    0.2600499615154293 Se
   0.1250116388396304    0.0555139337903454    0.2600427587134816 Se
   0.2499999416599517    0.2222457052610760    0.2600499615154293 Se
   0.3749975788879967    0.3888517282024580    0.2600427587134816 Se
   0.4999922991136279    0.5555794577561738    0.2600499615154293 Se
   0.6250144391619475    0.7221782950673075    0.2600427587134816 Se
   0.7500021585817861    0.8889118629456000    0.2600499615154293 Se
   0.3749975788879967    0.0555184248092507    0.2600427587134816 Se
   0.4999922991136279    0.2222466034648570    0.2600499615154293 Se
   0.6250144391619475    0.3888472371835527    0.2600427587134816 Se
   0.7500021585817861    0.5555794577561738    0.2600499615154293 Se
   0.8749957120064520    0.7221872771051180    0.2600427587134816 Se
  -0.0000076425463237    0.8889118629456000    0.2600499615154293 Se
   0.6250144391619475    0.0555139337903454    0.2600427587134816 Se
   0.7500021585817861    0.2222457052610760    0.2600499615154293 Se
   0.8749957120064520    0.3888517282024580    0.2600427587134816 Se
  -0.0000076425463237    0.5555794577561738    0.2600499615154293 Se
   0.8749957120064520    0.0555184248092507    0.2600427587134816 Se
  -0.0000076425463237    0.2222466034648570    0.2600499615154293 Se
   0.1249900530217695    0.6110525232744809    0.3332592405106325 Se
   0.2499427684126443    0.7779432768144592    0.3333504760019686 Se
   0.1249900530217695    0.2777192198812736    0.3332592405106325 Se
   0.2499427684126443    0.4446081770136899    0.3333504760019686 Se
   0.3750594193391659    0.6110480322555757    0.3332616414446151 Se
   0.4999952161160417    0.7779477678333645    0.3333456741340036 Se
   0.1249900530217695    0.9443849284639073    0.3332592405106325 Se
   0.2499427684126443    0.1112748736204825    0.3333504760019686 Se
   0.3750594193391659    0.2777138306585873    0.3332616414446151 Se
   0.4999952161160417    0.4446140153382667    0.3333456741340036 Se
   0.6249911031426384    0.6110525232744809    0.3332592405106325 Se
   0.7499438185335132    0.7779432768144592    0.3333504760019686 Se
   0.3750594193391659    0.9443804374450018    0.3332616414446151 Se
   0.4999952161160417    0.1112807119450594    0.3333456741340036 Se
   0.6249911031426384    0.2777192198812736    0.3332592405106325 Se
   0.7499438185335132    0.4446081770136899    0.3333504760019686 Se
   0.8750598860595521    0.6110480322555757    0.3332616414446151 Se
  -0.0000046672038618    0.7779477678333645    0.3333456741340036 Se
   0.6249911031426384    0.9443849284639073    0.3332592405106325 Se
   0.7499438185335132    0.1112748736204825    0.3333504760019686 Se
   0.8750598860595521    0.2777138306585873    0.3332616414446151 Se
  -0.0000046672038618    0.4446140153382667    0.3333456741340036 Se
   0.8750598860595521    0.9443804374450018    0.3332616414446151 Se
  -0.0000046672038618    0.1112807119450594    0.3333456741340036 Se
  -0.0000076425463237    0.6666917564922844    0.4066269811486827 Se
   0.1250122222401132    0.8332950848223232    0.4066173774127526 Se
  -0.0000076425463237    0.3333571057934054    0.4066269811486827 Se
   0.1250122222401132    0.4999626796328970    0.4066173774127526 Se
   0.2499999416599517    0.6666917564922844    0.4066269811486827 Se
   0.3749969954875140    0.8332905938034180    0.4066173774127526 Se
  -0.0000076425463237    0.0000239371307653    0.4066269811486827 Se
   0.1250122222401132    0.1666298253415802    0.4066173774127526 Se
   0.2499999416599517    0.3333589022009675    0.4066269811486827 Se
   0.3749969954875140    0.4999581886139917    0.4066173774127526 Se
   0.4999922991136279    0.6666917564922844    0.4066269811486827 Se
   0.6250144391619475    0.8332950848223232    0.4066173774127526 Se
   0.2499999416599517    0.0000253742568150    0.4066269811486827 Se
   0.3749969954875140    0.1666248852207843    0.4066173774127526 Se
   0.4999922991136279    0.3333571057934054    0.4066269811486827 Se
   0.6250144391619475    0.4999626796328970    0.4066173774127526 Se
   0.7500021585817861    0.6666917564922844    0.4066269811486827 Se
   0.8749957120064520    0.8332905938034180    0.4066173774127526 Se
   0.4999922991136279    0.0000239371307653    0.4066269811486827 Se
   0.6250144391619475    0.1666298253415802    0.4066173774127526 Se
   0.7500021585817861    0.3333589022009675    0.4066269811486827 Se
   0.8749957120064520    0.4999581886139917    0.4066173774127526 Se
   0.7500021585817861    0.0000253742568150    0.4066269811486827 Se
   0.8749957120064520    0.1666248852207843    0.4066173774127526 Se
  -0.0000108512489788    0.6666917564922844    0.5933836309795201 Se
   0.1250151392425268    0.8332905938034180    0.5933764281775725 Se
  -0.0000108512489788    0.3333584530990770    0.5933836309795201 Se
   0.1250151392425268    0.4999581886139917    0.5933764281775725 Se
   0.2500011084609172    0.6666917564922844    0.5933836309795201 Se
   0.3749975788879967    0.8332995758412285    0.5933764281775725 Se
  -0.0000108512489788    0.0000251047956806    0.5933836309795201 Se
   0.1250151392425268    0.1666239870170033    0.5933764281775725 Se
   0.2500011084609172    0.3333571057934054    0.5933836309795201 Se
   0.3749975788879967    0.4999626796328970    0.5933764281775725 Se
   0.4999893821112143    0.6666917564922844    0.5933836309795201 Se
   0.6250144391619475    0.8332905938034180    0.5933764281775725 Se
   0.2500011084609172    0.0000238024001981    0.5933836309795201 Se
   0.3749975788879967    0.1666307235453612    0.5933764281775725 Se
   0.4999893821112143    0.3333584530990770    0.5933836309795201 Se
   0.6250144391619475    0.4999581886139917    0.5933764281775725 Se
   0.7500021585817861    0.6666917564922844    0.5933836309795201 Se
   0.8749957120064520    0.8332995758412285    0.5933764281775725 Se
   0.4999893821112143    0.0000251047956806    0.5933836309795201 Se
   0.6250144391619475    0.1666239870170033    0.5933764281775725 Se
   0.7500021585817861    0.3333571057934054    0.5933836309795201 Se
   0.8749957120064520    0.4999626796328970    0.5933764281775725 Se
   0.7500021585817861    0.0000238024001981    0.5933836309795201 Se