Bi4 Se4
1.0
   4.2353980000000000    0.0000000000000000    0.0000000000000003
   0.0000000000000007    4.2353980000000000    0.0000000000000003
   0.0000000000000000    0.0000000000000000   25.3983559999999997
Bi Se
4 4
direct
   0.5000000000000000    0.5000000000000000    0.1840900000000001 Bi
   0.0000000000000000    0.0000000000000000    0.3159099999999999 Bi
   0.0000000000000000    0.0000000000000000    0.6840900000000001 Bi
   0.5000000000000000    0.5000000000000000    0.8159099999999999 Bi
   0.5000000000000000    0.5000000000000000    0.3003920000000000 Se
   0.0000000000000000    0.0000000000000000    0.1996080000000000 Se
   0.0000000000000000    0.0000000000000000    0.8003920000000000 Se
   0.5000000000000000    0.5000000000000000    0.6996080000000000 Se
