Bi12 Se9
1.0
   2.1363683600000001   -3.7002985399999999    0.0000000000000000
   2.1363683600000001    3.7002985399999999   -0.0000000000000000
  -0.0000000000000000    0.0000000000000000   40.0544741200000018
Bi Se
12 9
direct
   0.5521290400000000    0.3285228300000000    0.1769790000000000 Bi
   0.2187957100000000    0.6618561600000000    0.9258623900000000 Bi
   0.5521290400000000    0.3285228300000000    0.0360509700000000 Bi
   0.2187957100000000    0.6618561600000000    0.0800336400000000 Bi
   0.2187957100000000    0.6618561600000000    0.5058979300000001 Bi
   0.8854623700000001    0.9951894900000000    0.2680245400000000 Bi
   0.2187957100000000    0.6618561600000000    0.3649699000000000 Bi
   0.8854623700000001    0.9951894900000000    0.4089525700000000 Bi
   0.8854623700000001    0.9951894900000000    0.8348168600000000 Bi
   0.5521290400000000    0.3285228300000000    0.5969434700000000 Bi
   0.8854623700000001    0.9951894900000000    0.6938888300000000 Bi
   0.5521290400000000    0.3285228300000000    0.7378715000000000 Bi
   0.5521290400000000    0.3285228300000000    0.8803396300000000 Se
   0.8854623700000001    0.9951894900000000    0.9639490300000000 Se
   0.8854623700000001    0.9951894900000000    0.1388923700000000 Se
   0.2187957100000000    0.6618561600000000    0.2225017700000000 Se
   0.5521290400000000    0.3285228300000000    0.3061111700000000 Se
   0.5521290400000000    0.3285228300000000    0.4678113000000000 Se
   0.8854623700000001    0.9951894900000000    0.5514207000000000 Se
   0.2187957100000000    0.6618561600000000    0.6350301000000000 Se
   0.2187957100000000    0.6618561600000000    0.7967302300000000 Se
