Bi54 Se81
1.0
  12.5739999999999998    0.0000000000000000    0.0000000000000000
   0.0000000000000000   10.8900000000000006    0.0000000000000000
   0.0000000000000000    0.0000000000000000   29.9280000000000008
Bi Se
54 81
direct
   0.4571870500000000    0.3382947700000000    0.3358807800000000 Bi
   0.7417512300000000    0.1263461900000000    0.5314695300000000 Bi
   0.2534149800000000    0.9348732800000000    0.1399716000000000 Bi
   0.6405670400000000    0.5378999100000000    0.3560699000000000 Bi
   0.0623882600000000    0.7857382900000000    0.3147293500000000 Bi
   0.1292428800000000    0.8611965100000000    0.8441847099999999 Bi
   0.6510481900000000    0.2025362700000000    0.4010608800000000 Bi
   0.6255002400000000    0.3759274600000000    0.1421712100000000 Bi
   0.2738428500000000    0.8544655600000000    0.2535719100000000 Bi
   0.5198791200000000    0.9308641000000000    0.1394002300000000 Bi
   0.7355074000000000    0.1094407700000000    0.1536193500000000 Bi
   0.7565190100000000    0.8179504100000000    0.1875651600000000 Bi
   0.2916732900000000    0.8277272700000000    0.3653942800000000 Bi
   0.1462160000000000    0.3770211200000000    0.1520853400000000 Bi
   0.8769206300000000    0.0452598700000000    0.2450685000000000 Bi
   0.6905177400000000    0.8307447200000000    0.4415824600000000 Bi
   0.7173906500000000    0.4798567500000000    0.4875795200000000 Bi
   0.4257937000000000    0.6325629000000000    0.3025838700000000 Bi
   0.2467162400000000    0.1771496800000000    0.5599776100000000 Bi
   0.6331477700000000    0.1476400400000000    0.2953107500000000 Bi
   0.9314458400000000    0.3361588600000000    0.2282711800000000 Bi
   0.6408565300000000    0.4264674000000000    0.0073432900000000 Bi
   0.5443415000000000    0.6281992700000000    0.1928334700000000 Bi
   0.1751686000000000    0.2569779600000000    0.4332481300000000 Bi
   0.2925004000000000    0.6398494000000000    0.1669974600000000 Bi
   0.1400946400000000    0.1491570200000000    0.9303404800000000 Bi
   0.1460028600000000    0.5995197400000000    0.3907865500000000 Bi
   0.2165579800000000    0.1430514200000000    0.2179310300000000 Bi
   0.6428527100000000    0.7886611600000000    0.9618003200000000 Bi
   0.6289883900000000    0.0750440800000000    0.0519242800000000 Bi
   0.5453626499999999    0.8810027499999999    0.2582748600000000 Bi
   0.6714506099999999    0.4160697900000000    0.2516810300000000 Bi
   0.1127143300000000    0.7156299400000000    0.0946591800000000 Bi
   0.4927867000000000    0.1725858600000000    0.2045846700000000 Bi
   0.7453586800000001    0.8027061500000000    0.3336300500000000 Bi
   0.1975099400000000    0.8930202000000000    0.4660789200000000 Bi
   0.1192723100000000    0.3073140500000000    0.3021267700000000 Bi
   0.7865166200000000    0.4266207500000000    0.6198082100000000 Bi
   0.7558613000000000    0.7763094600000000    0.5728705600000000 Bi
   0.2756386200000000    0.8277842100000000    0.5990089500000000 Bi
   0.1395506600000000    0.0846418700000000    0.0563469000000000 Bi
   0.2281406100000000    0.5428934800000000    0.5192271500000000 Bi
   0.5327620500000000    0.9485142300000000    0.3669734000000000 Bi
   0.3404032100000000    0.4057539000000000    0.2362814100000000 Bi
   0.6453475400000001    0.4879127600000000    0.8839341100000000 Bi
   0.1124908500000000    0.5566409600000000    0.2441295800000000 Bi
   0.0050699900000000    0.1179641900000000    0.1523038600000000 Bi
   0.0256934900000000    0.8203443500000001    0.1951119400000000 Bi
   0.6390909800000000    0.1276767700000000    0.9264722000000000 Bi
   0.1346445000000000    0.7830624400000000    0.9763248500000000 Bi
   0.1396723400000000    0.4227465600000000    0.0122854900000000 Bi
   0.6484666800000000    0.7019017400000001    0.0932815400000000 Bi
   0.1515301400000000    0.4931258000000000    0.8850300700000000 Bi
   0.8621242200000000    0.6211037600000000    0.2603414900000000 Bi
   0.9954334300000000    0.6391340700000000    0.8360916200000000 Se
   0.7878678200000000    0.2109072500000000    0.0000791900000000 Se
   0.7916693200000000    0.4860045900000000    0.0852489300000000 Se
   0.8876865000000000    0.3405482100000000    0.5364391200000000 Se
   0.6738285400000000    0.6070055100000000    0.6942866200000000 Se
   0.6328105600000000    0.3154297500000000    0.7320382300000000 Se
   0.9171154800000000    0.9727309500000000    0.3341335900000000 Se
   0.9857682500000000    0.2960495900000000    0.8757511400000000 Se
   0.5632360400000000    0.0496161600000000    0.8358152900000000 Se
   0.4925027800000000    0.3446951300000000    0.9346702099999999 Se
   0.3511062500000000    0.1055482100000000    0.7375979000000000 Se
   0.9824980100000000    0.2164967900000000    0.0016693400000000 Se
   0.9601185000000000    0.0001202900000000    0.7978932800000000 Se
   0.3792842400000000    0.1967199300000000    0.8077913700000000 Se
   0.1247542500000000    0.3584582200000000    0.7651527000000000 Se
   0.3237378700000000    0.5059963300000000    0.8176911300000000 Se
   0.1007412100000000    0.9691046800000001    0.5590971700000000 Se
   0.2986941300000000    0.3520642800000000    0.9373509799999999 Se
   0.8039120400000000    0.2766877900000000    0.8792057599999999 Se
   0.4884762200000000    0.6443847600000000    0.0208012600000000 Se
   0.0531406100000000    0.6834637300000000    0.4726904600000000 Se
   0.4376960400000000    0.3571120300000000    0.6932117100000000 Se
   0.8541721000000000    0.7936712600000000    0.7055857400000000 Se
   0.5477859100000000    0.0861120300000000    0.6589955900000000 Se
   0.1169460800000000    0.6353471100000000    0.5997861500000000 Se
   0.8365309399999999    0.0608310400000000    0.4463342000000000 Se
   0.9891927800000000    0.6524591400000000    0.7217625600000001 Se
   0.2174288200000000    0.8519127600000000    0.6893942100000000 Se
   0.9847240300000000    0.4924481200000000    0.0861965400000000 Se
   0.2918586000000000    0.9965142299999999    0.9864568300000000 Se
   0.0041116600000000    0.3921790600000000    0.3832828800000000 Se
   0.6388826100000000    0.0184481200000000    0.7621177500000000 Se
   0.8786368700000000    0.1825674900000000    0.7745976999999999 Se
   0.5909352600000000    0.6698135900000000    0.7606318500000000 Se
   0.7807698400000000    0.8639798000000000    0.0359262200000000 Se
   0.3267226000000000    0.1078356300000000    0.4767929700000000 Se
   0.8001304299999999    0.9411505999999999    0.9164474700000000 Se
   0.9828598700000000    0.3213370100000000    0.6565627500000000 Se
   0.6427016100000000    0.9100266299999999    0.6453495100000000 Se
   0.6072888500000000    0.9151000900000000    0.5237840800000000 Se
   0.3736973100000000    0.3940808100000000    0.5789164000000000 Se
   0.2994838600000000    0.6359697000000000    0.0234282300000000 Se
   0.7951598500000000    0.5753259900000000    0.9516242300000000 Se
   0.5841450600000000    0.2699485800000000    0.4873052000000000 Se
   0.2243900100000000    0.7969862300000000    0.7620034800000000 Se
   0.8236193700000000    0.5612938500000000    0.8210398300000000 Se
   0.6331978700000001    0.5580064300000001    0.5708891300000000 Se
   0.8131628800000000    0.4011405000000000    0.3999285000000000 Se
   0.9663162100000000    0.9613112900000000    0.6826700700000000 Se
   0.9755447700000000    0.8707438000000000    0.0407544800000000 Se
   0.4390655300000000    0.8480165300000000    0.8366021800000000 Se
   0.1948648000000000    0.4720238800000000    0.7062804100000000 Se
   0.6418084900000000    0.2212745600000000    0.6134085100000000 Se
   0.3524423400000000    0.7581799800000000    0.5150771900000000 Se
   0.3461038700000000    0.5886271800000000    0.7502572800000000 Se
   0.8401845100000001    0.1252708900000000    0.6918755000000000 Se
   0.0794949900000000    0.3317612500000000    0.5218290600000000 Se
   0.3014633400000000    0.4672525300000000    0.4352472600000000 Se
   0.2464522000000000    0.0925023000000000    0.8478515100000000 Se
   0.0203308400000000    0.0544270000000000    0.4403792400000000 Se
   0.2915380900000000    0.2930146900000000    0.0698987600000000 Se
   0.9178893000000000    0.9684563800000000    0.5664605100000000 Se
   0.9848298100000000    0.9350367300000000    0.9153952800000000 Se
   0.1469953900000000    0.1449926500000000    0.7312262800000000 Se
   0.2572920300000000    0.7198604199999999    0.9023990900000000 Se
   0.8604103700000000    0.6953599600000000    0.4871077300000000 Se
   0.5610505800000000    0.6161157000000000    0.4425447700000000 Se
   0.2695458900000000    0.1790275500000000    0.3521765600000000 Se
   0.1361173900000000    0.2064674000000000    0.6490597400000000 Se
   0.4012525800000000    0.0473305800000000    0.6118567900000000 Se
   0.4211022700000000    0.6522718100000000    0.6448202400000000 Se
   0.9877779500000000    0.5683039500000000    0.9558891300000000 Se
   0.5853356100000000    0.3755528000000000    0.8014441300000000 Se
   0.9348433300000000    0.6260312200000000    0.6083032600000000 Se
   0.4833839700000000    0.9906170800000000    0.9808854600000000 Se
   0.4968880200000000    0.4678383800000000    0.6303859300000000 Se
   0.8026809300000000    0.8544710700000000    0.7815420300000000 Se
   0.4829688200000000    0.2960330600000000    0.0647955100000000 Se
   0.8641824400000000    0.4763002800000000    0.7495165100000000 Se
   0.5020001600000000    0.8496749300000001    0.7318250500000000 Se
   0.5536559599999999    0.7237052300000000    0.8768561200000000 Se
