Bi12
1.0
   4.5382848800000000   -7.8606316200000004   -0.0001882900000000
   2.2691821100000000    3.9303387100000000   -0.0000000000000000
  -0.0002471100000000    0.0001426700000000   11.6252640800000009
Bi
12
direct
   0.1666658000000000    0.6666658000000000    0.9038388100000000 Bi
   0.6666658000000000    0.6666658000000000    0.9038388100000000 Bi
   0.0000008600000000    0.0000008600000000    0.7628278500000000 Bi
   0.5000008600000000    0.0000008600000000    0.7628278500000000 Bi
  -0.0000008600000000   -0.0000008600000000    0.2371721500000000 Bi
   0.4999991400000000   -0.0000008600000000    0.2371721500000000 Bi
   0.3333342000000000    0.3333342000000000    0.0961611900000000 Bi
   0.8333342000000000    0.3333342000000000    0.0961611900000000 Bi
   0.3333324700000000    0.3333324700000000    0.5705054800000000 Bi
   0.8333324700000000    0.3333324700000000    0.5705054800000000 Bi
   0.1666675300000000    0.6666675300000000    0.4294945200000000 Bi
   0.6666675300000000    0.6666675300000000    0.4294945200000000 Bi
