Nb2 Se4
1.0
   1.7492297995391450   -3.0297548869153212    0.0000000000000000
   1.7492297995391450    3.0297548869153212    0.0000000000000000
   0.0000000000000000    0.0000000000000000   13.4818145600000001
Nb Se
2 4
direct
   0.3333333333333333    0.6666666666666666    0.2500000000000000 Nb
   0.6666666666666667    0.3333333333333334    0.7500000000000000 Nb
   0.3333333333333333    0.6666666666666666    0.8740798400000001 Se
   0.6666666666666667    0.3333333333333334    0.1259201599999999 Se
   0.6666666666666667    0.3333333333333333    0.3740798400000001 Se
   0.3333333333333333    0.6666666666666667    0.6259201599999999 Se
