Nb3 Se6
1.0
   1.7497631086412768   -3.0306786053763526    0.0000000000000000
   1.7497631086412768    3.0306786053763526    0.0000000000000000
   0.0000000000000000    0.0000000000000000   20.1274156401425195
Nb Se
3 6
direct
   0.0000000000000000    0.0000000000000000    0.3324983999999991 Nb
   0.6666666666666666    0.3333333333333333    0.6658317333333325 Nb
   0.3333333333333333    0.6666666666666666    0.9991650666666658 Nb
   0.3333333333333333    0.6666666666666666    0.2495215666666668 Se
   0.6666666666666666    0.3333333333333333    0.0823120333333335 Se
   0.0000000000000000    0.0000000000000000    0.5828549000000001 Se
   0.3333333333333333    0.6666666666666666    0.4156453666666667 Se
   0.6666666666666666    0.3333333333333333    0.9161882333333334 Se
   0.0000000000000000    0.0000000000000000    0.7489787000000001 Se
