Bi6 Se9
1.0
   2.0713334500000000   -3.5876547799999998   -0.0000000000000000
   2.0713334500000000    3.5876547799999998    0.0000000000000000
  -0.0000000000000000   -0.0000000000000000   27.9283282899999996
Bi Se
6 9
direct
   0.2419925800000000    0.0163772400000000    0.2387424400000000 Bi
   0.2419925800000000    0.0163772400000000    0.4414075500000000 Bi
   0.9086592400000000    0.3497105700000000    0.5788174400000000 Bi
   0.9086592400000000    0.3497105700000000    0.7612575600000000 Bi
   0.5753259100000000    0.6830439100000000    0.8986674500000000 Bi
   0.5753259100000000    0.6830439100000000    0.1013325500000000 Bi
   0.5753259100000000    0.6830439100000000    0.5101124900000000 Se
   0.9086592400000000    0.3497105700000000    0.3850194000000000 Se
   0.5753259100000000    0.6830439100000000    0.2951305900000000 Se
   0.2419925800000000    0.0163772400000000    0.8299625000000000 Se
   0.5753259100000000    0.6830439100000000    0.7048694100000000 Se
   0.2419925800000000    0.0163772400000000    0.6352055800000000 Se
   0.9086592400000000    0.3497105700000000    0.1700375000000000 Se
   0.2419925800000000    0.0163772400000000    0.0449444100000000 Se
   0.9086592400000000    0.3497105700000000    0.9550555900000000 Se
