Bi128 Se192
1.0
  16.8642930000000000    0.0000000000000000    0.0000000000000000
   0.0000000000000000   23.1650869999999998    0.0000000000000000
   0.0000000000000000    0.0000000000000000   24.4724530000000016
Bi Se
128 192
direct
   0.0605355943471808    0.4754741477983658    0.4267001759079892 Bi
   0.0496189196902592    0.4823551925360782    0.9310100626202039 Bi
   0.0552269816469626    0.9781746125106288    0.4305453155840160 Bi
   0.0504191311192233    0.9926748818167617    0.9366817457980202 Bi
   0.3044888985266088    0.4841553152811384    0.4269290046240971 Bi
   0.3007276972713887    0.4918090745784810    0.9341973197374207 Bi
   0.3100894890761208    0.9732231957514340    0.4288536175756472 Bi
   0.2990074947108664    0.9841059522029856    0.9374744738502511 Bi
   0.5529902735916649    0.4741920459871358    0.4298383983003256 Bi
   0.5493939176697179    0.4717487139159029    0.9304747668735945 Bi
   0.5508555858226609    0.9817187390662508    0.4280118547985361 Bi
   0.5391877382585798    0.9869593841801674    0.9337560072134982 Bi
   0.8032652184114685    0.4774512610291514    0.4293276199161563 Bi
   0.8017709369731657    0.4813839032851464    0.9300702303933324 Bi
   0.8079971096327607    0.9745916343849691    0.4274152656458263 Bi
   0.7899174901669462    0.9864931653397201    0.9366122799377732 Bi
   0.1849327451794155    0.0236308631174146    0.0740841140853351 Bi
   0.1707441871414354    0.0186340331896876    0.5717857543745206 Bi
   0.1672551585767633    0.5173388729340840    0.0652897361780611 Bi
   0.1749975525211760    0.5085929528345825    0.5683328924975358 Bi
   0.4266161646978026    0.0203772168004377    0.0725579082734371 Bi
   0.4359435643107007    0.0150641350926073    0.5678098554321465 Bi
   0.4192953715877683    0.5113082458960764    0.0744007966835200 Bi
   0.4322713083791891    0.5179777654191414    0.5635274894592708 Bi
   0.6735236395620023    0.0136849475246952    0.0715240928238783 Bi
   0.6826968672804723    0.0136036182380839    0.5670784207860160 Bi
   0.6798446872335531    0.5165143562810708    0.0721660390971024 Bi
   0.6756227492015230    0.5130090812954858    0.5675238195370116 Bi
   0.9288085779818934    0.0191040508503163    0.0734250056584029 Bi
   0.9333625785557687    0.0146127230171853    0.5681857883228950 Bi
   0.9196709283929069    0.5158754637960135    0.0714292923557765 Bi
   0.9314650783166540    0.5139156179296888    0.5651170317908057 Bi
   0.1790113584957282    0.2252199614013969    0.3218590306415135 Bi
   0.1772259293644862    0.2311599347759843    0.8221366284777418 Bi
   0.1710596465561882    0.7306901113732058    0.3201865379003894 Bi
   0.1709884902972215    0.7290971970016777    0.8247354688963954 Bi
   0.4312075223076354    0.2319468949112948    0.3183428322448918 Bi
   0.4257367919307379    0.2312501567552930    0.8241388797436856 Bi
   0.4192337028299971    0.7378560676245249    0.3198874260786199 Bi
   0.4277920218772290    0.7262437650244957    0.8166365668370064 Bi
   0.6726519753896590    0.2410442058775778    0.3168227557736039 Bi
   0.6823173672326495    0.2257133763408702    0.8242778114641797 Bi
   0.6822402812854353    0.7275863026113393    0.3212934968145612 Bi
   0.6773482884814679    0.7247069695874659    0.8115982488555601 Bi
   0.9207382722774088    0.2393144476426961    0.3152589566726310 Bi
   0.9233414054179443    0.2396187849413214    0.8235422905909758 Bi
   0.9164688967394008    0.7303922493362534    0.3259526129236002 Bi
   0.9292414452239414    0.7384474748573144    0.8174497260246040 Bi
   0.0537214338009901    0.2658781294454021    0.1789624440181783 Bi
   0.0581002120871595    0.2637719426652704    0.6860652669350309 Bi
   0.0584270565033470    0.7789998802939959    0.1777655881083927 Bi
   0.0496415118024811    0.7625527156448841    0.6789920078710538 Bi
   0.2989564993919401    0.2715776547698699    0.1811534789749111 Bi
   0.3010704332520788    0.2575630300892028    0.6874341530046048 Bi
   0.2969137217907682    0.7660623074715843    0.1776299253695573 Bi
   0.3035069421528670    0.7679358165156039    0.6767813590243691 Bi
   0.5549559652456229    0.2649944720691099    0.1751544890085191 Bi
   0.5406814267280579    0.2615384090722388    0.6838260144988325 Bi
   0.5430829504681873    0.7659025843503200    0.1867863429955305 Bi
   0.5554736270296062    0.7617368326741014    0.6751591268762472 Bi
   0.7961080846970578    0.2644052232568779    0.1824140800270410 Bi
   0.8029687339991067    0.2650328919550356    0.6888643324802789 Bi
   0.8052398045977972    0.7612533464691931    0.1881401100249329 Bi
   0.8013855072370955    0.7673228250772380    0.6754982837233356 Bi
   0.0520365721824212    0.0777385381716892    0.2447829810930682 Bi
   0.0639131447728049    0.0794747716682437    0.7463044264504256 Bi
   0.0498389111242315    0.5823505001297858    0.2390103681065400 Bi
   0.0588389326489999    0.5833174725396024    0.7396234451854907 Bi
   0.3044900844642583    0.0842595583603895    0.2442628043866301 Bi
   0.3046229094809963    0.0746239373070345    0.7414499886872803 Bi
   0.2940170690819947    0.5812583393276270    0.2465682537014168 Bi
   0.2979947039582388    0.5748996323648602    0.7378622813168749 Bi
   0.5472153502076844    0.0833504316215173    0.2343614675651844 Bi
   0.5605073393826827    0.0888682179350330    0.7495979254715495 Bi
   0.5607795120732307    0.5828987389514230    0.2393041678331142 Bi
   0.5378505935588287    0.5829203231569992    0.7432601872807764 Bi
   0.7928467561610794    0.0878740494261904    0.2481757754320746 Bi
   0.7925384123722233    0.0871561587487239    0.7473300694458377 Bi
   0.7971932176463016    0.5832786209695652    0.2397454803570365 Bi
   0.8144545401339979    0.5839908997535818    0.7481636597688021 Bi
   0.1700687956500756    0.4138836171865014    0.2565701117088671 Bi
   0.1860593859463898    0.4123394831195756    0.7630252676345931 Bi
   0.1809723063990883    0.9203030405195544    0.2559959968050607 Bi
   0.1817917893148559    0.9121010424005748    0.7571778766926225 Bi
   0.4249208668279186    0.4120114031948164    0.2562101151037045 Bi
   0.4185677988398327    0.4170625389837733    0.7607941876525414 Bi
   0.4227654251500493    0.9179546789528571    0.2574776627418592 Bi
   0.4397688061989909    0.9223880747782213    0.7662247834330297 Bi
   0.6786646792723536    0.4064616722570479    0.2497616401592435 Bi
   0.6828510391749004    0.4188186299494580    0.7528137861782797 Bi
   0.6751009366357664    0.9109657131872633    0.2623876731932021 Bi
   0.6847603987905095    0.9115312193733613    0.7684681220963014 Bi
   0.9375015009523375    0.4156941003502383    0.2525427263053687 Bi
   0.9253397103572619    0.4103878392513700    0.7627433179665315 Bi
   0.9064714423545653    0.9151487322279429    0.2605545917280953 Bi
   0.9163503029744561    0.9182050557375416    0.7611210858184098 Bi
   0.1801178383226620    0.3365931671225755    0.5095034813224485 Bi
   0.1698760807820405    0.3329104699671536    0.0074000346430331 Bi
   0.1722805693662936    0.8248015645268244    0.5054622027469007 Bi
   0.1715144536447511    0.8341173076535391    0.0156844105492817 Bi
   0.4221410289776156    0.3268168170488632    0.5179374540018525 Bi
   0.4220906266275141    0.3349691714950175    0.0129002597328515 Bi
   0.4347754157259957    0.8224618366423575    0.5042649382144078 Bi
   0.4237989698115420    0.8249828718536650    0.0119374629098276 Bi
   0.6932220639193116    0.3333378372375636    0.5080692156197010 Bi
   0.6756879757722425    0.3411690187047430    0.0013068980048710 Bi
   0.6748222412881465    0.8417278985397293    0.5102103986061389 Bi
   0.6737786161566334    0.8334999993740581    0.0150560714122119 Bi
   0.9315362345756207    0.3317634852828311    0.5094013256456147 Bi
   0.9305044688206021    0.3363626478070210    0.0058066512580492 Bi
   0.9270771090137012    0.8385852382078254    0.5091234622046266 Bi
   0.9173820687294747    0.8352914884368878    0.0037945521848586 Bi
   0.0486769294153037    0.1584686472362482    0.9927284363361530 Bi
   0.0488667387360976    0.1621556612327854    0.4871681641394918 Bi
   0.0477585985964546    0.6749165241641440    0.9889772798828135 Bi
   0.0545543178121964    0.6590953014767439    0.4955817056835291 Bi
   0.2961523498198234    0.1722100158743198    1.0009417527535960 Bi
   0.2982846657135286    0.1686913586812776    0.4948870470810588 Bi
   0.2992992353726301    0.6673145669601845    0.9895616103543031 Bi
   0.2985064360539751    0.6631142805550440    0.4875808730739006 Bi
   0.5483236089410922    0.1697964700067822    0.9862435939707391 Bi
   0.5570610045733906    0.1617930465791041    0.4929133994046285 Bi
   0.5538257666657002    0.6727796878120942    0.9949717749994247 Bi
   0.5480597378140903    0.6583916563749578    0.4839809070222752 Bi
   0.8092126957234436    0.1647815956831934    0.9900070091052989 Bi
   0.7936769125156922    0.1691364250002601    0.5028919659177606 Bi
   0.8041783904015424    0.6733149761103855    0.9930022135500679 Bi
   0.7978454833534971    0.6697967506014547    0.4890723459556751 Bi
   0.0457331949818471    0.1536821338076563    0.3512561654526418 Se
   0.0363520130965466    0.1578306181194139    0.8514757388644285 Se
   0.0491147182985969    0.6503450645361272    0.3483827305746587 Se
   0.0490053748473179    0.6505306887040830    0.8489872265767555 Se
   0.3071252379213288    0.1547885401854955    0.3465827475488460 Se
   0.2879136409691174    0.1516363828031382    0.8572740950815187 Se
   0.2989944493967224    0.6563929589385958    0.3489482644016110 Se
   0.2985016923033773    0.6468656905972338    0.8493100385155504 Se
   0.5518476226664231    0.1522191563536973    0.3388834784972311 Se
   0.5502821849691535    0.1494520611988205    0.8502907330131556 Se
   0.5390246718317809    0.6485190407443754    0.3435450463425141 Se
   0.5481391956366033    0.6464167391212474    0.8513776694146679 Se
   0.7953965221073899    0.1536782486506526    0.3542705751646555 Se
   0.8026010933277783    0.1583559776831402    0.8535392835364726 Se
   0.7986044834491430    0.6410077372038362    0.3513877419644038 Se
   0.8147628839228540    0.6549252329594101    0.8522684669166591 Se
   0.1776765856712760    0.3478281778091315    0.1494218826367753 Se
   0.1783430826302650    0.3443298097693309    0.6580296629847444 Se
   0.1893064832305748    0.8496838367151395    0.1500111165807530 Se
   0.1772881910910822    0.8502320755367765    0.6460611038868886 Se
   0.4231852470779534    0.3422944191834894    0.1545594959361041 Se
   0.4149939757332252    0.3432113162363690    0.6518839774664190 Se
   0.4206230287863238    0.8507198785828002    0.1446928920447819 Se
   0.4341753312753757    0.8406314208964550    0.6490236185150707 Se
   0.6739861552452866    0.3429130225153050    0.1511658843516831 Se
   0.6777989447882576    0.3430852644758037    0.6551856489416895 Se
   0.6769806478101394    0.8423322562958646    0.1576936321013672 Se
   0.6778226635412465    0.8496622525095633    0.6481123898777127 Se
   0.9220368740035529    0.3463401626767040    0.1558540126729429 Se
   0.9169195530461905    0.3491504262427333    0.6565913110549236 Se
   0.9132016385151751    0.8492089841924618    0.1575003535607975 Se
   0.9254167963044759    0.8484233191094859    0.6489664113360438 Se
   0.1828502386669871    0.3991243374134533    0.3984847779664751 Se
   0.1826480362977564    0.4037822089768107    0.9000650649936890 Se
   0.1699252971944925    0.8983001013551126    0.3959827811294601 Se
   0.1700486347100350    0.9037738558892527    0.9093081106336173 Se
   0.4184853761731962    0.4000265572065411    0.4010840270078361 Se
   0.4163026579293896    0.4045842780560246    0.9024922838752617 Se
   0.4381079005209408    0.8959905913584526    0.4001245808910124 Se
   0.4273805015128710    0.9090749367787828    0.9069340127039982 Se
   0.6802597654108594    0.3980559192374283    0.4061709710914553 Se
   0.6863969927467460    0.3985722134348125    0.9012582432991085 Se
   0.6789137261787376    0.9002728977447830    0.4050738191222596 Se
   0.6631585445058384    0.9064891489507465    0.9164712666932080 Se
   0.9328111175487759    0.3985381103900020    0.3992550317698025 Se
   0.9145891855650278    0.3999246797562211    0.9004450841115109 Se
   0.9324612659421893    0.8956063924991950    0.4014280873274126 Se
   0.9132372166446585    0.9089324810219793    0.8987411274219219 Se
   0.0502797241485309    0.0966445755200488    0.1012799983720471 Se
   0.0526737764814689    0.0975066486907647    0.5957106138890123 Se
   0.0409652512560117    0.5974205924631322    0.0975496816767816 Se
   0.0546497857929769    0.5896804963434845    0.6014517629270755 Se
   0.3136182465520493    0.1081308263595125    0.1046919979782983 Se
   0.2956032606881296    0.0921455637097327    0.6024201987434605 Se
   0.3049875853082011    0.5941225258510793    0.0965922786734946 Se
   0.2998643346625915    0.5926159483018562    0.5965196868495365 Se
   0.5496411856696276    0.0965707575369780    0.0970438067651003 Se
   0.5653993321866502    0.0928358266040615    0.5951344558716691 Se
   0.5481652862648911    0.5910705191825958    0.0949614654485188 Se
   0.5504766787436627    0.6003474107392733    0.5964134449456292 Se
   0.8020496323207856    0.0958468232819501    0.0930327662698954 Se
   0.8094617426298274    0.0930201557196828    0.5959108390156066 Se
   0.8016226947669849    0.5974162756220169    0.0963082858918965 Se
   0.8034312496823911    0.6013705020835881    0.5906436923180524 Se
   0.0489129903044260    0.4679585274167112    0.1876501713988377 Se
   0.0595346629710478    0.4619883361543171    0.6971225973955287 Se
   0.0462429109835793    0.9693294050654764    0.1922533061969717 Se
   0.0474188867567706    0.9734822062183492    0.6896366293971429 Se
   0.3011860621728999    0.4713601982155302    0.1902898740882248 Se
   0.3072622137198399    0.4746625816686982    0.6919208303311482 Se
   0.3111171040493663    0.9744534954692811    0.1849185286003001 Se
   0.3130934691421692    0.9635664221766145    0.6872707039216704 Se
   0.5483455487876070    0.4674361896417657    0.1810733889242733 Se
   0.5393685937501204    0.4677642695665249    0.6913896208116121 Se
   0.5562219536864071    0.9723511938461531    0.1912905910984894 Se
   0.5587752774456658    0.9783084345852016    0.7008247191239880 Se
   0.7951652642657477    0.4673843875483826    0.1845376922370634 Se
   0.8040835153895867    0.4812155464816515    0.6845983114156965 Se
   0.7852923333341041    0.9749067637863825    0.1943123560192352 Se
   0.7938132953453785    0.9662212794624947    0.7003139407398187 Se
   0.1820918315401659    0.0268225627643876    0.3161007194497421 Se
   0.1682187329169388    0.0274529510724480    0.8157416831079417 Se
   0.1760150870244012    0.5275611526950018    0.3111228776289814 Se
   0.1758395682522831    0.5247206712411657    0.8126034607156053 Se
   0.4350713071695327    0.0261047152553323    0.3041023308942507 Se
   0.4283245078818306    0.0299991102990461    0.8161707369506440 Se
   0.4222264164883757    0.5245782154843623    0.3074060454830580 Se
   0.4211151929108442    0.5258646341367076    0.8102865699650131 Se
   0.6781013588888666    0.0243131830240914    0.3145589859749654 Se
   0.6807519295353798    0.0259767640846762    0.8248212796649359 Se
   0.6756939054604897    0.5236716788501593    0.3005992084242637 Se
   0.6749764131825745    0.5302634952331499    0.8063229297038592 Se
   0.9213846082963573    0.0306127060951681    0.3084684645221302 Se
   0.9262706714120775    0.0362248153870521    0.8108586417552828 Se
   0.9382071338537583    0.5252732269039180    0.3064592666701617 Se
   0.9372821024871899    0.5249624143436198    0.8116064213097067 Se
   0.1693720572810256    0.2197207375046768    0.0663362189315472 Se
   0.1729571467953029    0.2167943509126471    0.5567116627009151 Se
   0.1693696854057267    0.7203901284722134    0.0606024251022159 Se
   0.1825857745711605    0.7152660380684087    0.5616437387784542 Se
   0.4256259067605146    0.2250693036464746    0.0618470898687598 Se
   0.4320358997557739    0.2104934896208247    0.5652314461488596 Se
   0.4208151506855342    0.7138975994348739    0.0627088751585303 Se
   0.4193588192520137    0.7170273092434317    0.5604015257481544 Se
   0.6719819206177217    0.2196520997309443    0.0511775423575234 Se
   0.6703334672849909    0.2205115827969910    0.5546726353913112 Se
   0.6810839920772249    0.7192634329411325    0.0615479780469902 Se
   0.6778760307354716    0.7266711322949058    0.5566299381594481 Se
   0.9210703348192539    0.2219465007837009    0.0584551127751681 Se
   0.9343409771165622    0.2216840368438936    0.5586485343336852 Se
   0.9254405150574648    0.7264509733980278    0.0598991854228916 Se
   0.9268102730425758    0.7257473282962418    0.5573491141243584 Se
   0.0562758842010157    0.2796700051245221    0.4436784493977780 Se
   0.0537702351352648    0.2781336413716038    0.9368043326102208 Se
   0.0551310392911224    0.7679487670389497    0.4428285141665201 Se
   0.0511443319918600    0.7794660991344432    0.9400651418147580 Se
   0.3071056699501130    0.2742420091062037    0.4498486522785435 Se
   0.3067979191300815    0.2780839976987783    0.9439756611239584 Se
   0.3041829266130516    0.7804848736376427    0.4379127829972744 Se
   0.2986997438908349    0.7801481600306530    0.9416260805567794 Se
   0.5499347052378656    0.2786223077858503    0.4453170264541931 Se
   0.5390661796495115    0.2828105070358683    0.9349573579730646 Se
   0.5569821397197025    0.7720022808461717    0.4386769074599918 Se
   0.5455159015560272    0.7814820639352662    0.9390435850464192 Se
   0.8107781334207131    0.2773488396568509    0.4482550237199352 Se
   0.8031525543347711    0.2787677853314343    0.9403920399806263 Se
   0.8027315464692175    0.7798200801058939    0.4378147135475139 Se
   0.7965468816273531    0.7846894768838986    0.9404206435701397 Se
   0.0389201610764234    0.4320337756555804    0.0387816047700653 Se
   0.0599604145871991    0.4310503992495258    0.5383072959625257 Se
   0.0462838258324852    0.9393100919500109    0.0425531514965010 Se
   0.0527178933620283    0.9285611575730324    0.5335141516054807 Se
   0.2822614621318545    0.4401926053634075    0.0372515987669891 Se
   0.3002218948638997    0.4337518784194508    0.5339472916752562 Se
   0.3087138014027626    0.9319023925962376    0.0406121527743868 Se
   0.3092415436567664    0.9311685296066448    0.5338369635442756 Se
   0.5527951868483310    0.4255067118893186    0.0341075330699379 Se
   0.5516128070118326    0.4264378545178786    0.5438032713761877 Se
   0.5425308964923700    0.9338665553036775    0.0371107056574999 Se
   0.5577251296570808    0.9407778179291967    0.5355613513692313 Se
   0.8045519607611181    0.4271734442439176    0.0368039525911031 Se
   0.8096811410949750    0.4300860169443784    0.5371100314300327 Se
   0.8061826250291073    0.9369401461777372    0.0416995386608772 Se
   0.8075168048847348    0.9311383117188380    0.5358759908538796 Se
   0.1836216911079522    0.0712960844912864    0.4629368375944986 Se
   0.1918728523039774    0.0704849500457305    0.9711000364368867 Se
   0.1853389288243509    0.5646385010339051    0.4633086842581738 Se
   0.1711509637551957    0.5753744848875380    0.9656612682022517 Se
   0.4358546189869922    0.0667599478473791    0.4643506721618793 Se
   0.4253252715663799    0.0709649827777465    0.9623023895479541 Se
   0.4287704204380225    0.5672113383385955    0.4571997747835086 Se
   0.4227630532747503    0.5667537531803788    0.9696862018695059 Se
   0.6854363832506942    0.0719479274996895    0.4641177572186981 Se
   0.6712466392750648    0.0648868704874711    0.9681742978523648 Se
   0.6771703978340509    0.5693309073261844    0.4581722968269670 Se
   0.6786409605193648    0.5601446694329273    0.9603573454610373 Se
   0.9345544458934626    0.0624292928405579    0.4594431134467803 Se
   0.9312397501632591    0.0694925082733339    0.9713860723320216 Se
   0.9267450464718562    0.5652126409022337    0.4550831091595109 Se
   0.9240351789428706    0.5617462174866860    0.9620040949715992 Se
   0.1809723063990883    0.1759449468072363    0.2113323090251721 Se
   0.1793380843181508    0.1792050252174749    0.7141458193831243 Se
   0.1819809463699427    0.6840768610107099    0.2121229939638662 Se
   0.1723920475053416    0.6831012549186628    0.7129403823964846 Se
   0.4178508995307422    0.1833988363609427    0.2102470071144891 Se
   0.4232125236438907    0.1720183481288027    0.7175128704915685 Se
   0.4238748698211066    0.6836235926936083    0.2167661737873191 Se
   0.4323472083887536    0.6794794252229660    0.7109217862222474 Se
   0.6840962737068195    0.1835292049626233    0.2170003145986223 Se
   0.6854126644977052    0.1825894286518328    0.7169121951117854 Se
   0.6766011477623164    0.6773555393942619    0.2151145208042692 Se
   0.6801708200871509    0.6735049171194566    0.7108359754537070 Se
   0.9292414452239414    0.1863174526389648    0.2071067416086160 Se
   0.9320402580766356    0.1842414837466400    0.7197398642465469 Se
   0.9219064208621137    0.6732977087459244    0.2160935808110449 Se
   0.9243613117964683    0.6842624851786657    0.7137045068592021 Se
   0.0484194623516088    0.3132981974123387    0.2905789623949834 Se
   0.0451474603767854    0.3169744193060877    0.7893691735765106 Se
   0.0465801916510820    0.8189349774511964    0.2886073578320898 Se
   0.0484728295458339    0.8174327167430885    0.7839222328877288 Se
   0.3035033843399186    0.3181490317735479    0.2910039300106123 Se
   0.3020417161869756    0.3205064587065872    0.7899902800916605 Se
   0.2897850505799442    0.8156196434746824    0.2834419581886621 Se
   0.3058325658834319    0.8169794484259870    0.7808534763556395 Se
   0.5456368671962708    0.3135766336642725    0.2833414370026576 Se
   0.5488590597898174    0.3168216031306078    0.7880084599610836 Se
   0.5446774436378685    0.8194011962916437    0.2889170938442501 Se
   0.5527406337164564    0.8099732152959324    0.7820057923903254 Se
   0.8046231170200849    0.3228751094265263    0.2834403236978328 Se
   0.8042495466605093    0.3200924736436345    0.7916656331917359 Se
   0.7954024517956371    0.8090019260450004    0.2875522940017496 Se
   0.8038166794184611    0.8093127386052987    0.7875140264852076 Se
