Bi6 Se9
1.0
   2.0713334500000000   -3.5876547799999998   -0.0000000000000000
   2.0713334500000000    3.5876547799999998    0.0000000000000000
  -0.0000000000000000   -0.0000000000000000   28.6814616200000003
Bi Se
6 9
direct
   0.1821706300000000    0.5251695199999999    0.5669008500000000 Bi
   0.1821706300000000    0.5251695199999999    0.7642442699999999 Bi
   0.8488373000000000    0.8585028500000000    0.8980459800000000 Bi
   0.8488373000000000    0.8585028500000000    0.1019540200000000 Bi
   0.5155039700000000    0.1918361800000000    0.2357557300000000 Bi
   0.5155039700000000    0.1918361800000000    0.4330991500000000 Bi
   0.5155039700000000    0.1918361800000000    0.8311451200000000 Se
   0.8488373000000000    0.8585028500000000    0.7093368000000000 Se
   0.5155039700000000    0.1918361800000000    0.6218083300000000 Se
   0.1821706300000000    0.5251695199999999    0.1688548800000000 Se
   0.5155039700000000    0.1918361800000000    0.0470465500000000 Se
   0.1821706300000000    0.5251695199999999    0.9529534500000000 Se
   0.8488373000000000    0.8585028500000000    0.5000000000000000 Se
   0.1821706300000000    0.5251695199999999    0.3781916700000000 Se
   0.8488373000000000    0.8585028500000000    0.2906632000000000 Se
