Bi6 Se9
1.0
   2.1701144200000000   -3.7587484400000002   -0.0000000000000000
   2.1701144200000000    3.7587484400000002    0.0000000000000000
  -0.0000000000000000   -0.0000000000000000   29.8520052199999988
Bi Se
6 9
direct
   0.6666666700000000    0.3333333300000000    0.7340096000000000 Bi
   0.6666666700000000    0.3333333300000000    0.9326570600000000 Bi
   0.3333333300000000    0.6666666700000000    0.0673429400000000 Bi
   0.3333333300000000    0.6666666700000000    0.2659904000000000 Bi
   0.0000000000000000    0.0000000000000000    0.4006762700000000 Bi
   0.0000000000000000    0.0000000000000000    0.5993237300000001 Bi
   0.0000000000000000    0.0000000000000000    0.0000000000000000 Se
   0.3333333300000000    0.6666666700000000    0.8773867600000000 Se
   0.0000000000000000    0.0000000000000000    0.7892799000000000 Se
   0.6666666700000000    0.3333333300000000    0.3333333300000000 Se
   0.0000000000000000    0.0000000000000000    0.2107201000000000 Se
   0.6666666700000000    0.3333333300000000    0.1226132400000000 Se
   0.3333333300000000    0.6666666700000000    0.6666666700000000 Se
   0.6666666700000000    0.3333333300000000    0.5440534299999999 Se
   0.3333333300000000    0.6666666700000000    0.4559465700000000 Se
