Bi54 Se81
1.0
  12.5739999999999998    0.0000000000000000    0.0000000000000000
   0.0000000000000000   10.8900000000000006    0.0000000000000000
   0.0000000000000000    0.0000000000000000   29.9280000000000008
Bi Se
54 81
direct
   0.7044091000000000    0.7516326900000000    0.0771468200000000 Bi
   0.2735756300000000    0.7246730900000000    0.6285912900000000 Bi
   0.3593279800000000    0.4726033100000000    0.9683507099999999 Bi
   0.1847097200000000    0.2374701600000000    0.6865443700000000 Bi
   0.2480348300000000    0.8892690500000000    0.9075193800000000 Bi
   0.9429807500000000    0.2230156100000000    0.7794717300000000 Bi
   0.6507459799999999    0.5044866900000000    0.8850431000000000 Bi
   0.8274638100000000    0.5634049600000000    0.0108824500000000 Bi
   0.9199689800000000    0.3795702500000000    0.6142378400000000 Bi
   0.1312382700000000    0.0061570200000000    0.7514461400000000 Bi
   0.1282018500000000    0.4676005500000000    0.8266332500000000 Bi
   0.2998878600000000    0.6974582200000000    0.8205546600000000 Bi
   0.5718426900000000    0.5233930200000000    0.0352081700000000 Bi
   0.0210990900000000    0.6735059700000000    0.5975948900000000 Bi
   0.7645355500000000    0.2812598700000000    0.0003140900000000 Bi
   0.7511022700000000    0.1297787000000000    0.5965213200000000 Bi
   0.0587673000000000    0.7218622600000000    0.7778150900000000 Bi
   0.0007467800000000    0.3701469200000000    0.9711831700000000 Bi
   0.2223166900000000    0.5598007300000000    0.7193681500000000 Bi
   0.6961905500000000    0.3392029400000000    0.7916603200000000 Bi
   0.6710060400000000    0.3936492200000000    0.6367595600000000 Bi
   0.8963750600000000    0.3973011900000000    0.8686183500000000 Bi
   0.1714704900000000    0.9484049600000000    0.0149054400000000 Bi
   0.7352688100000000    0.6423966900000000    0.7197443900000000 Bi
   0.4012319100000000    0.0399990800000000    0.9774455399999999 Bi
   0.8314792400000000    0.8356437100000000    0.9215590800000000 Bi
   0.2935080300000000    0.0199164400000000    0.6318557900000000 Bi
   0.2182654700000000    0.2542387500000000    0.0157033500000000 Bi
   0.3742078900000000    0.7513011900000000    0.0215580700000000 Bi
   0.0480340400000000    0.1222323200000000    0.6027385700000000 Bi
   0.9563122300000000    0.9489467400000000    0.8313626000000000 Bi
   0.7309845699999999    0.9873057900000000    0.0147153200000000 Bi
   0.4028177200000000    0.1233232300000000    0.8692482000000000 Bi
   0.2688070600000000    0.2412277300000000    0.7889575000000000 Bi
   0.1760155900000000    0.4537456400000000    0.6156001100000000 Bi
   0.8959114000000000    0.9060844800000000    0.5588405500000000 Bi
   0.7606545300000001    0.1198898100000000    0.8673282500000000 Bi
   0.3227206900000000    0.4933315000000000    0.0730513200000000 Bi
   0.4680634600000000    0.2553489400000000    0.0493026600000000 Bi
   0.5275178900000000    0.1439403100000000    0.6562393100000000 Bi
   0.9566884000000000    0.0761267200000000    0.9682888900000000 Bi
   0.9366056900000000    0.8177419700000000    0.0295292000000000 Bi
   0.1531732100000000    0.8917842100000000    0.5546551700000000 Bi
   0.8267464600000000    0.6665023000000000    0.8242819400000000 Bi
   0.6591569900000001    0.8951524300000000    0.6702469300000000 Bi
   0.5232066200000000    0.6433158900000000    0.6550454400000000 Bi
   0.3793407000000000    0.4291101900000000    0.8607745300000000 Bi
   0.7649785300000000    0.6736060600000000    0.6113776400000001 Bi
   0.1357952900000000    0.6060146900000000    0.0100327500000000 Bi
   0.5007388300000000    0.8540468300000000    0.8636056500000000 Bi
   0.5404103700000000    0.6019623500000000    0.7931432100000000 Bi
   0.5194814700000000    0.9616455500000000    0.0738626000000000 Bi
   0.5017568000000000    0.1222387500000000    0.7657925700000000 Bi
   0.7609790000000000    0.1583223100000000    0.7040624200000000 Bi
   0.5842110700000001    0.0155408600000000    0.1787784000000000 Se
   0.4646532500000000    0.9825821900000000    0.5032304200000000 Se
   0.5642206100000000    0.2726483000000000    0.3429066400000000 Se
   0.4507054200000000    0.8152910900000000    0.2450868800000000 Se
   0.0795379400000000    0.6935463700000000    0.9172353600000001 Se
   0.5489788500000000    0.3327502300000000    0.2262723900000000 Se
   0.2479250800000000    0.1737722700000000    0.4757381000000000 Se
   0.0658398300000000    0.9981717200000000    0.4273035300000000 Se
   0.7070749200000001    0.2578025700000000    0.1133710900000000 Se
   0.3582392200000000    0.3228347100000000    0.5707838800000000 Se
   0.8876459400000000    0.5255978000000000    0.2535959600000000 Se
   0.1416478400000000    0.7717649200000000    0.1321718800000000 Se
   0.7106497500000000    0.7264830100000000    0.4828702200000000 Se
   0.2290917800000000    0.5318705200000000    0.4127933700000000 Se
   0.9352799400000000    0.5359596000000000    0.4318865300000000 Se
   0.4037895700000000    0.3178007300000000    0.4533667500000000 Se
   0.0785780200000000    0.6385509600000000    0.4606930000000000 Se
   0.5741617600000000    0.0488200200000000    0.2941660000000000 Se
   0.0994711300000000    0.0981864100000000    0.8889575000000000 Se
   0.9494067100000000    0.0357998200000000    0.2152502700000000 Se
   0.4664935600000000    0.2929237800000000    0.1627689800000000 Se
   0.7288611400000000    0.3132929300000000    0.4687272800000000 Se
   0.1288189900000000    0.7621202900000000    0.3524592400000000 Se
   0.1539446500000000    0.9264049600000001    0.3041843800000000 Se
   0.6086042600000000    0.7322056900000000    0.9333847900000000 Se
   0.4037275300000000    0.7553645500000000    0.3317355000000000 Se
   0.7899856800000000    0.2854499500000000    0.1772089700000000 Se
   0.1332917100000000    0.3333452700000000    0.4965640900000000 Se
   0.9540186100000000    0.8258742000000000    0.2410364900000000 Se
   0.2943709200000000    0.3079191900000000    0.2685545300000000 Se
   0.5612788300000000    0.8485316800000000    0.3982802100000000 Se
   0.5184165700000000    0.1560844800000000    0.4086226900000000 Se
   0.8362589499999999    0.5178264500000000    0.4979911800000000 Se
   0.4408668700000000    0.5477998200000000    0.3272607600000000 Se
   0.1034666800000000    0.2827979800000000    0.2660157700000000 Se
   0.5268554200000000    0.8550532600000000    0.5588178300000000 Se
   0.3485311000000000    0.9190798900000000    0.7294430000000000 Se
   0.9624622200000000    0.9551561100000000    0.6781395300000000 Se
   0.4888253500000000    0.6165059700000000    0.2165540600000000 Se
   0.6528877000000000    0.5557254400000000    0.3006361900000000 Se
   0.9639414700000000    0.4393067000000000    0.0993397500000000 Se
   0.9385374600000000    0.4654389300000000    0.7106241599999999 Se
   0.3567035200000000    0.6120835600000000    0.5133951500000000 Se
   0.1920979800000000    0.2891542700000000    0.1568140200000000 Se
   0.3110545600000000    0.0207741000000000    0.1232003500000000 Se
   0.3515190100000000    0.0528934800000000    0.3658059300000000 Se
   0.5774924400000000    0.5239292900000000    0.4123336000000000 Se
   0.4972753300000000    0.3112011000000000    0.5246334499999999 Se
   0.8259925200000000    0.0125821900000000    0.3176550400000000 Se
   0.1760823900000000    0.5984031200000000    0.2995606100000000 Se
   0.5477254700000000    0.5187465600000000    0.5243340700000000 Se
   0.6632607000000000    0.1252268100000000    0.2320525900000000 Se
   0.2085311000000000    0.0827043200000000    0.1795796600000000 Se
   0.0578439600000000    0.0939834700000000    0.3527442500000000 Se
   0.7548632100000000    0.4951138700000000    0.1874184700000000 Se
   0.7718880200000000    0.0278126700000000    0.3928919400000000 Se
   0.9826713900000000    0.2922470200000000    0.1477419100000000 Se
   0.7355455700000000    0.7871147800000000    0.2255219200000000 Se
   0.0105185300000000    0.3150247900000000    0.4318394100000000 Se
   0.8421234300000000    0.2555941200000000    0.2984696600000000 Se
   0.3442882100000000    0.1020257100000000    0.2362630300000000 Se
   0.7654898999999999    0.3283076200000000    0.3633657400000000 Se
   0.4393279800000000    0.4682580300000000    0.7179644500000000 Se
   0.8686567500000000    0.1842323200000000    0.4768584600000000 Se
   0.6254167300000000    0.2556850300000000    0.9265173100000000 Se
   0.0405384100000000    0.5272993600000000    0.2070960300000000 Se
   0.3710545600000000    0.6565959600000000    0.4391720100000000 Se
   0.6475552700000000    0.9528117500000000    0.8035872800000000 Se
   0.9062096400000000    0.8693627200000000    0.4242605600000000 Se
   0.2136281200000000    0.7809164400000000    0.2027496000000000 Se
   0.9719293800000000    0.1271092700000000    0.0985100900000000 Se
   0.0594576100000000    0.4375482100000000    0.3269884400000000 Se
   0.9667878200000000    0.7052378300000000    0.1538773100000000 Se
   0.2412732600000000    0.2225968800000000    0.3666787000000000 Se
   0.3190870000000000    0.5524169000000000    0.2019326400000000 Se
   0.9451542900000000    0.7436978900000000    0.3484566300000000 Se
   0.2911086400000000    0.8401184600000000    0.4382945700000000 Se
   0.5369166500000000    0.6714270000000000    0.1482153800000000 Se
   0.6863750600000000    0.6981000900000000    0.4077886900000000 Se
   0.8545244200000000    0.9938732800000000    0.1475848700000000 Se
   0.6826904700000000    0.7681028500000000    0.2982738600000000 Se
