Bi6 Se9
1.0
   2.0713334500000000   -3.5876547799999998   -0.0000000000000000
   2.0713334500000000    3.5876547799999998    0.0000000000000000
  -0.0000000000000000   -0.0000000000000000   27.5517616300000014
Bi Se
6 9
direct
   0.2612019200000000    0.0880674700000000    0.2420054800000000 Bi
   0.2612019200000000    0.0880674700000000    0.4474405300000000 Bi
   0.9278685800000001    0.4214008100000000    0.5867284900000000 Bi
   0.9278685800000001    0.4214008100000000    0.7579945200000000 Bi
   0.5945352500000000    0.7547341400000001    0.8972824700000001 Bi
   0.5945352500000000    0.7547341400000001    0.1027175300000000 Bi
   0.5945352500000000    0.7547341400000001    0.5170845100000000 Se
   0.9278685800000001    0.4214008100000000    0.3902817000000000 Se
   0.5945352500000000    0.7547341400000001    0.2991643100000000 Se
   0.2612019200000000    0.0880674700000000    0.8276385000000001 Se
   0.5945352500000000    0.7547341400000001    0.7008356900000000 Se
   0.2612019200000000    0.0880674700000000    0.6438873200000000 Se
   0.9278685800000001    0.4214008100000000    0.1723615000000000 Se
   0.2612019200000000    0.0880674700000000    0.0455586900000000 Se
   0.9278685800000001    0.4214008100000000    0.9544413100000000 Se
