Bi4 Se4
1.0
   0.0000000000000000    4.9672080000000003    0.0000000000000000
   8.9457729999999991    0.0000000000000000    0.0000000000000000
   0.0000000000000000   -4.5589800000000000   -5.8877290000000011
Bi Se
4 4
direct
   0.5993650000000000    0.6334460000000000    0.9082340000000002 Bi
   0.5993650000000000    0.8665540000000000    0.4082340000000002 Bi
   0.4006350000000000    0.3665540000000000    0.0917659999999998 Bi
   0.4006350000000000    0.1334460000000000    0.5917659999999998 Bi
   0.1632050000000012    0.6541980000000001    0.3718730000000001 Se
   0.1632050000000012    0.8458019999999999    0.8718730000000001 Se
   0.8367949999999988    0.3458019999999999    0.6281269999999999 Se
   0.8367949999999988    0.1541980000000001    0.1281269999999999 Se
