Bi54 Se81
1.0
  12.5739999999999998    0.0000000000000000    0.0000000000000000
   0.0000000000000000   10.8900000000000006    0.0000000000000000
   0.0000000000000000    0.0000000000000000   29.9280000000000008
Bi Se
54 81
direct
   0.4609328800000000    0.5532084500000000    0.8856485600000000 Bi
   0.6699371700000000    0.2439182700000000    0.6830730400000000 Bi
   0.6864434500000000    0.4396602400000000    0.0568504400000000 Bi
   0.5457937000000000    0.9980073500000000    0.6552676400000000 Bi
   0.3867552100000000    0.3202607900000000    0.4807421100000000 Bi
   0.4638969300000000    0.7832332400000001    0.5436039800000000 Bi
   0.1292667400000000    0.7957529800000001    0.7075434400000000 Bi
   0.5505050100000000    0.1413158900000000    0.8763091400000000 Bi
   0.4169763000000000    0.2611405000000000    0.6661196900000000 Bi
   0.5439844100000000    0.4958787900000000    0.7061524300000001 Bi
   0.7850970300000000    0.6605785100000000    0.9415971700000000 Bi
   0.1187434400000000    0.3544022000000000    0.5502492600000000 Bi
   0.7012287300000000    0.7018650100000000    0.5111534300000000 Bi
   0.3442953700000000    0.9788989900000000    0.8312159200000000 Bi
   0.1198791200000000    0.5386492200000000    0.9273793800000000 Bi
   0.7310609200000000    0.2597741000000000    0.4971655300000000 Bi
   0.1911030700000000    0.4976308500000000    0.1380994400000000 Bi
   0.2399204700000000    0.6990936600000000    0.4866406000000000 Bi
   0.0592945800000000    0.5355335200000000    0.6325852000000000 Bi
   0.9033585200000001    0.3370753000000000    0.9473556500000000 Bi
   0.7516534100000000    0.0011542700000000    0.8014678600000000 Bi
   0.9794456800000000    0.1269752100000000    0.5068250500000000 Bi
   0.5743892200000000    0.4159779600000000    0.6016436100000000 Bi
   0.6297423300000000    0.8469191900000000    0.8783289900000000 Bi
   0.0879036100000000    0.9684233200000000    0.7960712400000000 Bi
   0.0013901700000000    0.1881781500000000    0.8588205000000000 Bi
   0.7537657100000000    0.9588631800000000    0.5627048200000000 Bi
   0.2007436000000000    0.0229944900000000    0.0508032600000000 Bi
   0.5786138100000000    0.6568696100000000    0.7971528300000000 Bi
   0.7917631600000000    0.0807180900000000    0.9049458700000000 Bi
   0.4049801200000000    0.2833618000000000    0.0518457600000000 Bi
   0.5020812800000000    0.9443966900000000    0.0776440100000000 Bi
   0.8730364200000000    0.7453921000000000    0.7180082200000000 Bi
   0.0225942400000000    0.4086115700000000    0.7402800100000000 Bi
   0.1718689400000000    0.8444784200000000    0.8920973700000000 Bi
   0.9060386499999999    0.5361405000000000    0.5456866500000001 Bi
   0.9793876300000000    0.4795555600000000    0.8438956800000000 Bi
   0.3810529700000000    0.6790358100000000    0.0679019600000000 Bi
   0.1092516300000000    0.2400440800000000    0.6540206500000000 Bi
   0.9381628800000000    0.1096905400000000    0.7175324100000000 Bi
   0.9652481300000000    0.9191450900000000    0.0196755500000000 Bi
   0.1850143200000000    0.7522277300000000    0.9966469500000000 Bi
   0.4926697900000000    0.3709697000000000    0.8015781199999999 Bi
   0.7099912500000000    0.8699770400000000    0.0268474300000000 Bi
   0.5704215000000000    0.6375555600000000    0.9982254100000000 Bi
   0.0579521200000000    0.2539026600000000    0.0909382500000000 Bi
   0.2919938000000000    0.9688246100000000    0.6561086600000000 Bi
   0.2148321900000000    0.0049173600000000    0.4996491600000000 Bi
   0.0940241800000000    0.7729660200000000    0.0929150000000000 Bi
   0.4364537900000000    0.7320082600000000    0.6533176300000000 Bi
   0.2286273300000000    0.5992286500000000    0.8347530700000000 Bi
   0.9373644000000000    0.8242056900000000    0.5075541300000000 Bi
   0.6861054599999999    0.1417034000000000    0.0721615200000000 Bi
   0.3049029700000000    0.2254692400000000    0.8942725900000000 Bi
   0.3254907000000000    0.4319825500000000    0.9462028900000000 Se
   0.7682718300000000    0.9299100100000000    0.3341850400000000 Se
   0.5735589300000000    0.7147814500000000    0.3025250600000000 Se
   0.9654207100000000    0.9032341600000000    0.6579300300000001 Se
   0.5144480700000000    0.0994967900000000    0.3432488000000000 Se
   0.2575361900000000    0.3112855800000000    0.2014865700000000 Se
   0.8716271700000000    0.9809173600000000    0.1576770900000000 Se
   0.1947351700000000    0.4496574800000000    0.4634760100000000 Se
   0.9167003300000000    0.8029669400000000    0.8086935300000000 Se
   0.6249053600000000    0.8921111100000000    0.3996134100000000 Se
   0.2646802900000000    0.7300009200000001    0.1437526700000000 Se
   0.3520279900000000    0.1836427900000000    0.2476126000000000 Se
   0.3351861000000000    0.4178934800000000    0.3537152500000000 Se
   0.6140233800000000    0.0419568400000000    0.2195475800000000 Se
   0.0541665300000000    0.0733002800000000    0.2954621100000000 Se
   0.2031803700000000    0.5484086300000000    0.7052472600000000 Se
   0.5443757000000000    0.7144894400000000    0.1825755100000000 Se
   0.3953531100000000    0.0310055100000000    0.0007330900000000 Se
   0.2060879600000000    0.1409090900000000    0.3376650600000000 Se
   0.1173874700000000    0.0513259900000000    0.1737637000000000 Se
   0.2707340500000000    0.9450725400000000    0.3619941200000000 Se
   0.1182249100000000    0.1961616200000000    0.4011460800000000 Se
   0.6940567800000000    0.2267144200000000    0.3584967300000000 Se
   0.7541148400000000    0.4506795200000000    0.2703137500000000 Se
   0.5438794300000001    0.0272121200000000    0.5635615500000000 Se
   0.2890886000000000    0.6550440800000000    0.2583346700000000 Se
   0.1099809100000000    0.8047493100000001    0.3421030500000000 Se
   0.7306672500000000    0.6291735500000000    0.5974669200000000 Se
   0.7614808300000000    0.2234609700000000    0.2850394300000000 Se
   0.8732670600000000    0.5051147800000000    0.6860501900000000 Se
   0.9794830600000000    0.2617640000000000    0.2166646600000000 Se
   0.1952250700000000    0.4147061500000000    0.0514013600000000 Se
   0.7675099399999999    0.7227309500000000    0.1057862200000000 Se
   0.6959289000000000    0.4513360900000000    0.1954467400000000 Se
   0.4051534900000000    0.8556005500000000    0.2801149400000000 Se
   0.6833632900000000    0.0373333300000000    0.4484202100000000 Se
   0.6373842900000000    0.5154490400000000    0.3753782400000000 Se
   0.8033211400000000    0.6370826400000000    0.3975705000000000 Se
   0.6018975700000000    0.2687061500000000    0.0034917100000000 Se
   0.4337068600000000    0.1690284700000000    0.4063231800000000 Se
   0.7831851399999999    0.2443902700000000    0.7654881700000000 Se
   0.4261253400000000    0.5362571200000000    0.2282614900000000 Se
   0.9332853500000000    0.4797860400000000    0.2565961600000000 Se
   0.8999658000000000    0.1689274600000000    0.0339478100000000 Se
   0.3836527800000000    0.8769733700000000    0.4635642200000000 Se
   0.2968721200000000    0.1938255300000000    0.5498265800000000 Se
   0.0380531300000000    0.7842653800000000    0.2290737800000000 Se
   0.8519508500000000    0.7068402200000000    0.3271805700000000 Se
   0.0476133300000000    0.5084573000000000    0.3590179800000000 Se
   0.8467265800000000    0.6343820000000000    0.1654474100000000 Se
   0.2710617100000000    0.3448337900000000    0.8127482600000000 Se
   0.4767925900000000    0.3825353500000000    0.3058126200000000 Se
   0.5067766800000000    0.1041597800000000    0.7860184400000000 Se
   0.5353944600000000    0.2275610700000000    0.2056582500000000 Se
   0.4918578000000000    0.4618521600000000    0.1091543000000000 Se
   0.9026920600000000    0.3869807200000000    0.4666245700000000 Se
   0.3757340500000000    0.5687860400000000    0.5899906400000000 Se
   0.9225433400000000    0.8651303900000000    0.9284723300000000 Se
   0.4614768600000000    0.7686106500000000    0.9323192300000001 Se
   0.8981366300000000    0.0265004600000000    0.3777228700000000 Se
   0.0182185500000000    0.8339210300000000    0.4085334800000000 Se
   0.6796134900000000    0.7394132200000000    0.2385394900000000 Se
   0.8816168300000000    0.5321900800000000    0.0125434400000000 Se
   0.5786122200000000    0.4340615200000000    0.5093237100000000 Se
   0.8257364400000000    0.2188071600000000    0.1755509900000000 Se
   0.3565277600000000    0.6316391200000000    0.3652145100000000 Se
   0.1331414000000000    0.8211230500000000    0.5521535000000000 Se
   0.2573540600000000    0.1525775900000000    0.7133543800000000 Se
   0.5121687600000000    0.6217153399999999    0.4200678300000000 Se
   0.8730873200000000    0.9235362700000000    0.2303595300000000 Se
   0.1622419300000000    0.9413737400000000    0.2360227900000000 Se
   0.6693049100000000    0.8321368200000000    0.7364347800000000 Se
   0.3634133900000000    0.7559072500000000    0.7807989200000000 Se
   0.3610108200000000    0.1136152400000000    0.1183015900000000 Se
   0.9551503099999999    0.3288448100000000    0.3612606900000000 Se
   0.8383020500000000    0.1867382900000000    0.5731632600000000 Se
   0.1326212800000000    0.0977428800000000    0.9257481300000000 Se
   0.4451821200000000    0.9096703400000000    0.2038773100000000 Se
   0.7759829800000000    0.4543489400000000    0.8816061900000000 Se
   0.9501073600000000    0.4827355400000000    0.1289521500000000 Se
   0.1901177000000000    0.4278007300000000    0.3014294300000000 Se
