Bi4 Se4
1.0
   0.0000000000000000    5.7749350000000002    0.0000000000000000
   7.6391270000000002    0.0000000000000000    0.0000000000000000
   0.0000000000000000   -5.5713050000000006   -6.1483829999999990
Bi Se
4 4
direct
   0.6294979999999999    0.1831260000000000    0.1110510000000000 Bi
   0.6294979999999999    0.3168740000000000    0.6110510000000000 Bi
   0.3705020000000001    0.8168740000000000    0.8889490000000000 Bi
   0.3705020000000001    0.6831260000000001    0.3889490000000000 Bi
   0.2476839999999998    0.1506560000000000    0.2161070000000002 Se
   0.2476839999999998    0.3493440000000000    0.7161070000000000 Se
   0.7523160000000002    0.8493440000000000    0.7838929999999998 Se
   0.7523160000000002    0.6506560000000001    0.2838929999999998 Se
