Bi2 Se6
1.0
   5.9538852477063866    0.0596534413736104    0.6967636678521203
   0.6268469673333287    5.9210949451925732    0.6967636678521203
   0.0656378736057439    0.0596534413736104    5.9941570592993392
Bi Se
2 6
direct
   0.7459419500000000    0.7459419500000000    0.7459419500000000 Bi
   0.2540580500000000    0.2540580500000000    0.2540580500000000 Bi
   0.2008917700000000    0.2008917700000000    0.7408212000000000 Se
   0.2008917700000000    0.7408212000000000    0.2008917700000000 Se
   0.7991082300000000    0.2591788000000000    0.7991082300000000 Se
   0.7991082300000000    0.7991082300000000    0.2591788000000000 Se
   0.2591788000000000    0.7991082300000000    0.7991082300000000 Se
   0.7408212000000000    0.2008917700000000    0.2008917700000000 Se
