Bi54 Se81
1.0
  12.5739999999999998    0.0000000000000000    0.0000000000000000
   0.0000000000000000   10.8900000000000006    0.0000000000000000
   0.0000000000000000    0.0000000000000000   29.9280000000000008
Bi Se
54 81
direct
   0.9508286900000000    0.3340918300000000    0.7837396400000000 Bi
   0.9186161900000001    0.1416951300000000    0.5602860200000001 Bi
   0.1562064600000000    0.5174003700000001    0.2510431700000000 Bi
   0.9623413400000000    0.6170284700000001    0.7082157200000000 Bi
   0.4587975200000000    0.6662809900000000    0.8367946400000000 Bi
   0.6355710200000000    0.5466942100000000    0.3378521800000000 Bi
   0.9595411200000000    0.9054389300000000    0.6226283100000000 Bi
   0.5043279800000000    0.6720881500000000    0.5452810100000000 Bi
   0.0068339400000000    0.7693691499999999    0.2626583800000000 Bi
   0.4859821900000000    0.1173902700000000    0.3106037800000000 Bi
   0.0986583400000000    0.0746418700000000    0.4842759300000000 Bi
   0.5946620000000000    0.4795794300000000    0.6163599300000000 Bi
   0.6530237000000000    0.0449944900000000    0.3901430100000000 Bi
   0.0615858100000000    0.3057300300000000    0.4069981300000000 Bi
   0.5196659800000000    0.3197061500000000    0.4018260500000000 Bi
   0.4656879300000000    0.8827897200000000    0.6274000900000000 Bi
   0.6343486600000000    0.4267190100000000    0.5085685599999999 Bi
   0.9011014800000000    0.3842653800000000    0.4916536400000000 Bi
   0.4432018500000000    0.6291753900000000    0.2687520000000000 Bi
   0.4234483900000000    0.1110284700000000    0.5272744600000000 Bi
   0.7754390000000000    0.6040725400000000    0.4300708400000000 Bi
   0.1247057400000000    0.3272451800000000    0.5594630400000000 Bi
   0.5065436600000000    0.8314655600000000    0.3431595800000000 Bi
   0.9603475400000000    0.9623838400000000    0.7469630400000000 Bi
   0.9739947500000000    0.2411221300000000    0.6563392100000000 Bi
   0.9543812600000000    0.8004674000000001    0.4731131400000000 Bi
   0.3843701300000000    0.0475555600000000    0.4134960600000000 Bi
   0.9210712599999999    0.0434435300000000    0.4050751800000000 Bi
   0.1300469200000000    0.5644407700000000    0.4826981400000000 Bi
   0.7395013499999999    0.1423618000000000    0.4844637100000000 Bi
   0.9992023200000000    0.3699201100000000    0.9124381800000000 Bi
   0.4690551900000000    0.9711129500000000    0.7517374999999999 Bi
   0.8937418499999999    0.0571487600000000    0.2462262800000000 Bi
   0.5676713900000000    0.8934343400000000    0.4758994900000000 Bi
   0.6189199900000000    0.1064481200000000    0.1777235400000000 Bi
   0.4739048800000000    0.9096703400000000    0.2339598400000000 Bi
   0.7868291700000000    0.3165766800000000    0.3919089100000000 Bi
   0.3137076500000000    0.7836703400000000    0.4762309500000000 Bi
   0.4589931600000000    0.6112809900000000    0.6974592400000000 Bi
   0.1394011500000000    0.8632562000000000    0.3978602000000000 Bi
   0.5092031200000000    0.6195482100000000    0.4334409200000000 Bi
   0.4653618600000000    0.3210312200000000    0.7862957800000000 Bi
   0.0771202500000000    0.1421450900000000    0.3153845900000000 Bi
   0.9656616800000000    0.5662883399999999    0.5725130300000000 Bi
   0.6773150900000000    0.7362203899999999    0.2468811800000000 Bi
   0.5625067600000000    0.3933562900000000    0.0984823600000000 Bi
   0.4604445700000000    0.2515371900000000    0.6554951900000000 Bi
   0.2933418200000000    0.2910679500000000    0.3454043000000000 Bi
   0.2896214400000000    0.3126896200000000    0.4632207300000000 Bi
   0.9993868299999999    0.7203691500000000    0.8432611600000000 Bi
   0.6275894700000000    0.4495638200000000    0.2359165300000000 Bi
   0.3870621900000000    0.3973021100000000    0.5612667099999999 Bi
   0.0122872600000000    0.6085096400000000    0.3848927400000000 Bi
   0.0852457500000000    0.2314279200000000    0.2152108400000000 Bi
   0.5582797800000000    0.8800128600000000    0.9299278300000000 Se
   0.6185112100000000    0.1811423300000000    0.7268080099999999 Se
   0.5730149500000000    0.1569430700000000    0.8462560099999999 Se
   0.6140846200000000    0.8555243300000001    0.1081726100000000 Se
   0.6445586100000000    0.5740734600000000    0.8903852600000000 Se
   0.3870773000000000    0.5648898100000000    0.1112363000000000 Se
   0.8740050900000000    0.6967667600000000    0.1861073200000000 Se
   0.1557436000000000    0.0554508700000000    0.1528505100000000 Se
   0.1245936100000000    0.7647676799999999    0.7632695100000000 Se
   0.3457292800000000    0.8580165300000000    0.1551156100000000 Se
   0.4206775900000000    0.3435950400000000    0.9295298700000000 Se
   0.1177652300000000    0.4537520700000000    0.8389708600000000 Se
   0.0759153800000000    0.9371496800000000    0.8951256300000000 Se
   0.9447240300000000    0.3964490400000000    0.0712880900000000 Se
   0.8387951300000001    0.7671524300000000    0.5565420300000000 Se
   0.6516224000000000    0.4289586800000000    0.0082688500000000 Se
   0.3455614800000000    0.9220624400000000    0.8608189700000000 Se
   0.3812454300000000    0.3596189200000000    0.0042852800000000 Se
   0.8107094000000000    0.1783921000000000    0.7261410700000001 Se
   0.0734475900000000    0.6409274600000000    0.9396762200000000 Se
   0.2448711600000000    0.9507208400000000    0.5452980500000000 Se
   0.2696715400000000    0.5503416000000000    0.3272283500000000 Se
   0.1562851900000000    0.3764765800000000    0.9891158799999999 Se
   0.8142874200000000    0.8239118500000000    0.6908009200000000 Se
   0.6275998100000000    0.8448539900000001    0.8147590900000000 Se
   0.1139025000000000    0.1274012900000000    0.7904774800000000 Se
   0.8329616700000000    0.8685730000000000    0.2995906800000000 Se
   0.3040567800000000    0.4694646500000000    0.8285635500000000 Se
   0.8914092600000000    0.9219522500000000    0.0873108800000000 Se
   0.2357849500000000    0.0944517900000000    0.0347854900000000 Se
   0.6635191700000000    0.6442378300000000    0.1002195300000000 Se
   0.7175330000000000    0.0878686900000000    0.8841422700000000 Se
   0.7568705300000000    0.3869136800000000    0.1628197700000000 Se
   0.3139152200000000    0.0360284700000000    0.6775257300000000 Se
   0.2881716200000000    0.9294646500000000    0.9763158199999999 Se
   0.9715094600000000    0.1925280100000000    0.0519597000000000 Se
   0.6169898200000000    0.8263829200000000    0.6936791600000000 Se
   0.1251741700000000    0.4731221300000000    0.0597844800000000 Se
   0.6044806700000001    0.5263663900000000    0.7725324099999999 Se
   0.8535732500000000    0.4676528900000000    0.6437229400000000 Se
   0.0045546400000000    0.9406317700000000    0.9828027300000000 Se
   0.1494194400000000    0.6368108400000000    0.1581666000000000 Se
   0.1068315600000000    0.7028742000000000    0.6337336300000000 Se
   0.5550819200000000    0.0807217600000000    0.9783630700000000 Se
   0.0672125000000000    0.7403342500000000    0.0092849500000000 Se
   0.4726928600000000    0.8584150600000000    0.0535024100000000 Se
   0.2986885600000000    0.1417713500000000    0.7914805499999999 Se
   0.1191291600000000    0.0356492200000000    0.6741549700000000 Se
   0.1812859900000000    0.9130661200000000    0.3051453500000000 Se
   0.7650047700000000    0.7540468299999999    0.0068501100000000 Se
   0.9482424000000000    0.3737924700000000    0.1532902300000000 Se
   0.3082853500000000    0.4001634500000000    0.7100307400000000 Se
   0.3220383300000000    0.6217447200000000    0.9990901500000000 Se
   0.1496779100000000    0.1368622600000000    0.9022560800000000 Se
   0.8113702900000000    0.8597493100000000    0.8174421900000000 Se
   0.6655726100000000    0.1638723600000000    0.0814915800000000 Se
   0.3866168300000000    0.0980257100000000    0.0743290600000000 Se
   0.2954262800000000    0.6985831000000000    0.6370114900000000 Se
   0.2904048000000000    0.3270716300000000    0.2140681000000000 Se
   0.7894957800000000    0.5238200200000001    0.7654089800000000 Se
   0.8283203400000000    0.1819430700000000    0.9856682700000000 Se
   0.8295506600000000    0.5652607900000000    0.8809546200000000 Se
   0.8254310500000001    0.8493921000000000    0.9424311700000000 Se
   0.1163527900000000    0.4031322300000000    0.7141489600000001 Se
   0.8459034500000000    0.2291689600000000    0.8603030600000000 Se
   0.1299944300000000    0.9484563800000000    0.0897293500000000 Se
   0.9600485100000000    0.5383517000000000    0.2925197100000000 Se
   0.6298791200000000    0.3548916400000000    0.9337550100000001 Se
   0.7120120900000000    0.0439338800000000    0.0199418600000000 Se
   0.3283465900000000    0.0671551900000000    0.9166559700000000 Se
   0.8398465100000000    0.0121790600000000    0.1555062100000000 Se
   0.2621544500000000    0.7177226799999999    0.1080730400000000 Se
   0.6892524300000000    0.1929311300000000    0.2601319800000000 Se
   0.5761221600000000    0.0861919200000000    0.6007050300000000 Se
   0.3171170700000000    0.7546060600000000    0.7604420600000000 Se
   0.2136957200000000    0.3391092700000000    0.1014802200000000 Se
   0.4612319100000000    0.2989063400000000    0.1787179200000000 Se
   0.5732304800000000    0.7269237800000000    0.9873406200000000 Se
   0.8271989800000000    0.5530679500000000    0.9911591199999999 Se
   0.3473453200000000    0.6465656600000000    0.9254350400000000 Se
   0.8807451900000000    0.6781083600000000    0.1082969100000000 Se
