Bi6 Se9
1.0
   2.0713334500000000   -3.5876547799999998   -0.0000000000000000
   2.0713334500000000    3.5876547799999998    0.0000000000000000
  -0.0000000000000000   -0.0000000000000000   29.4345949400000002
Bi Se
6 9
direct
   0.1821706300000000    0.5251695199999999    0.5651890800000000 Bi
   0.1821706300000000    0.5251695199999999    0.7574831400000001 Bi
   0.8488373000000000    0.8585028500000000    0.8878613000000000 Bi
   0.8488373000000000    0.8585028500000000    0.1121387000000000 Bi
   0.5155039700000000    0.1918361800000000    0.2425168600000000 Bi
   0.5155039700000000    0.1918361800000000    0.4348109200000000 Bi
   0.5155039700000000    0.1918361800000000    0.8226722200000000 Se
   0.8488373000000000    0.8585028500000000    0.7039805600000000 Se
   0.5155039700000000    0.1918361800000000    0.6186916600000000 Se
   0.1821706300000000    0.5251695199999999    0.1773277800000000 Se
   0.5155039700000000    0.1918361800000000    0.0586361200000000 Se
   0.1821706300000000    0.5251695199999999    0.9413638800000000 Se
   0.8488373000000000    0.8585028500000000    0.5000000000000000 Se
   0.1821706300000000    0.5251695199999999    0.3813083400000000 Se
   0.8488373000000000    0.8585028500000000    0.2960194400000000 Se
