Bi128 Se192
1.0
  16.8642930000000000    0.0000000000000000    0.0000000000000000
   0.0000000000000000   23.1650869999999998    0.0000000000000000
   0.0000000000000000    0.0000000000000000   24.4724530000000016
Bi Se
128 192
direct
   0.5642851437649951    0.4751201668269150    0.0903718151997268 Bi
   0.5901563735876743    0.3606297701364127    0.9694124246555913 Bi
   0.8791000014053361    0.3209912399638301    0.7118861358115592 Bi
   0.0520200876490939    0.2253624171582002    0.5799050875692764 Bi
   0.3261868137608852    0.6143987285694200    0.5675728542618919 Bi
   0.1988265977115080    0.5054028072504110    0.7109626484929811 Bi
   0.1049465874436598    0.8336726730186682    0.5623874321058048 Bi
   0.2849772593490874    0.3894485697377265    0.8176213475616849 Bi
   0.6398192915647279    0.4441468318249787    0.3887624178908424 Bi
   0.2691390620407271    0.5305570404289870    0.8359603346669007 Bi
   0.6322707984259999    0.0788872495924578    0.3235887305616645 Bi
   0.7999623820577595    0.9456213136605099    0.0521811197267393 Bi
   0.7919098654180167    0.4806629908188992    0.1584181201614730 Bi
   0.2424394547699094    0.2013145903574634    0.8032541731717697 Bi
   0.1552445750319922    0.9347471908911891    0.7022058638747819 Bi
   0.0123859328108211    0.0592659116713009    0.9812624831683198 Bi
   0.2328896918477401    0.8548554123712120    0.1561326933593457 Bi
   0.9095667396196211    0.2847889153189884    0.3141646650623867 Bi
   0.1207598800613817    0.2819877171193012    0.0249424117802984 Bi
   0.3402300944368080    0.1396027565102605    0.4160514681548270 Bi
   0.5732140683276791    0.0898105843504926    0.6214293270887066 Bi
   0.0141994093674724    0.0898628181279872    0.7621467288138216 Bi
   0.7268137478398886    0.3267956645273985    0.0654883268138261 Bi
   0.4761735342240555    0.5477812364788442    0.4029367223628951 Bi
   0.3854095751301285    0.0529896563738353    0.5465124399258218 Bi
   0.9019530199101735    0.9735081072650408    0.5708009736498421 Bi
   0.4865439659996420    0.5585215371735923    0.2016614354106636 Bi
   0.1843415552611663    0.3820935358455593    0.5642957001490614 Bi
   0.0967719192260239    0.2830466382448726    0.7323417885407727 Bi
   0.6162902885997059    0.9327916618659797    0.6278814796375336 Bi
   0.8927501437504672    0.2934208708130472    0.1836934777237083 Bi
   0.9916810624673088    0.1333165724782299    0.1398793165523701 Bi
   0.9529305497716387    0.5231018558229460    0.2977699047986730 Bi
   0.2004981768284031    0.1227096621739431    0.9151432428943678 Bi
   0.8997708946351916    0.7959391648302465    0.3632999111286474 Bi
   0.1315892697073041    0.9232859777301938    0.9185634149547657 Bi
   0.0527378764114215    0.0874971891968288    0.2989320277783351 Bi
   0.4932664535655304    0.3543552415753932    0.8375131009547754 Bi
   0.3559283511025336    0.8468088205323814    0.4987893939361125 Bi
   0.4278287859443618    0.9737714345730712    0.2201450749542761 Bi
   0.6949535328875038    0.8371779480042532    0.4960025870720847 Bi
   0.8988695820216120    0.2949382404650585    0.4851863440089147 Bi
   0.4385366169812158    0.8402126873082757    0.9732657367857648 Bi
   0.4201605131030396    0.6493003889862361    0.8356334365010323 Bi
   0.1413756271905380    0.3644121863215968    0.2860506055522917 Bi
   0.7422309372826955    0.0763062102896484    0.7785692754216342 Bi
   0.2327793996463415    0.9986019046680032    0.5133486209984753 Bi
   0.6796312184566526    0.3950470809800974    0.5170180529103477 Bi
   0.7409323355565514    0.5637664991286241    0.3229304393801471 Bi
   0.8394956136020644    0.0990948145370661    0.4212900112628676 Bi
   0.6005113881738179    0.0611191315620787    0.1538439975755597 Bi
   0.4069971981630063    0.5678027455713851    0.6976129446443312 Bi
   0.3704205091787720    0.3926568460545821    0.2835588242829601 Bi
   0.4736557885942802    0.2879130132340967    0.5354101609675171 Bi
   0.0391619737631456    0.6172219426587952    0.1486095406945924 Bi
   0.3172537384164281    0.8190903837313455    0.8009617997836179 Bi
   0.5050410355180618    0.4962165693571537    0.5620809650753031 Bi
   0.2218035467007125    0.4291022088542124    0.3937521097701158 Bi
   0.6712762877163010    0.8147217405227100    0.1213204904306078 Bi
   0.3477252203813109    0.7466106214062569    0.6755922669460229 Bi
   0.2123664478552406    0.1526111255269622    0.0624167099227854 Bi
   0.3947156278653365    0.2711744618097053    0.6759927171992116 Bi
   0.0710044589476713    0.4413322514178341    0.0895651939754466 Bi
   0.2985728485623441    0.0058824298825211    0.0279667101618297 Bi
   0.1485884999744727    0.2238152613024937    0.3822698116939891 Bi
   0.7237896068337997    0.1516463115377033    0.0231115777400819 Bi
   0.4587283914006949    0.7023845841804955    0.1759627447236286 Bi
   0.5687709529240271    0.4251410754468568    0.6968447339545406 Bi
   0.3545971360910297    0.9028673192550497    0.6439893867606977 Bi
   0.0095490513595797    0.9462386219399910    0.0997836220177846 Bi
   0.6522004806249512    0.8747560499125258    0.2823452148421737 Bi
   0.3030118131842230    0.7316182322129851    0.9318763427597551 Bi
   0.1864768359989950    0.1108396441593334    0.6184954160500380 Bi
   0.2058159212485219    0.9936504879088087    0.1740074850690284 Bi
   0.4585214452808665    0.6890800798632875    0.0425335376065489 Bi
   0.2495900658272481    0.8659022087851430    0.3345843589933546 Bi
   0.7590178847106130    0.0716699229318673    0.9346549771696363 Bi
   0.4173949065045300    0.0211517876017474    0.8975765527060160 Bi
   0.7060124014685940    0.7730253721904865    0.3616870773027942 Bi
   0.4756475708765259    0.3902627259720630    0.4285144607285588 Bi
   0.3433787588960889    0.2516187398735001    0.2590055030445865 Bi
   0.6944435796982417    0.2341480521959620    0.7574475676794639 Bi
   0.0165199335661448    0.9263423012397926    0.2582973598927741 Bi
   0.2621402510025176    0.2246393462713954    0.5252313693277907 Bi
   0.3339220920794011    0.3993388844168813    0.0827930898467759 Bi
   0.3198005395186148    0.4313068196117719    0.9422390146177827 Bi
   0.4944921201262335    0.9604582965736326    0.3786894595323158 Bi
   0.4650482531345962    0.8977043772812078    0.1040386102692689 Bi
   0.4209224780428091    0.2570726369385101    0.0399977068093664 Bi
   0.5807121591163057    0.1974946176545765    0.4089291743659698 Bi
   0.6537481292574790    0.1980946585695966    0.2237961188443185 Bi
   0.7186189186822122    0.1190468224876514    0.5479712229910094 Bi
   0.6379632991433439    0.5868702327774552    0.4665041138295372 Bi
   0.5547757027229069    0.1583874906232815    0.9503992100832720 Bi
   0.2873746323074439    0.6436669113308316    0.0662079114014439 Bi
   0.3725213977247667    0.0570910871174367    0.7556332828588944 Bi
   0.8303164561953472    0.8998541641566035    0.2904416651653187 Bi
   0.5569441897149201    0.0337078380063930    0.7630538712241065 Bi
   0.0553427884584311    0.6498140930789512    0.3635217932587305 Bi
   0.1115338781175114    0.7861183512930472    0.0628743673550011 Bi
   0.5032075759120171    0.2703918185155100    0.1769994205321387 Bi
   0.2880055511369495    0.0113389602206113    0.3785591088886757 Bi
   0.2317405182654262    0.7300728030937246    0.4500733947675780 Bi
   0.6272187040393570    0.9557702071224684    0.9985758272781236 Bi
   0.6735829364444748    0.6195487200199162    0.1878761397559942 Bi
   0.9094955833606543    0.2667220718834339    0.9973949076539240 Bi
   0.0184939267836487    0.0791773413154028    0.4963621750545398 Bi
   0.8162986731788874    0.0977915602043714    0.2203089326599176 Bi
   0.6479251753986959    0.2694222560010243    0.6003157918006830 Bi
   0.9759911073651293    0.2945726040225966    0.8669298496558558 Bi
   0.8965570036051911    0.6953869847326712    0.2601847881779566 Bi
   0.0384732404732294    0.8920924838313796    0.4344885247098032 Bi
   0.3457269154419934    0.2505887415834009    0.9187595538542866 Bi
   0.5043899557485155    0.7846160905849393    0.5957514761597458 Bi
   0.1836495606427141    0.5274014295737375    0.2185923086664014 Bi
   0.2129202807375322    0.5667235352925720    0.3776679027639770 Bi
   0.8900224871567399    0.8123388442270907    0.1391536026241423 Bi
   0.1815350338137507    0.9772723927175410    0.8113653339123790 Bi
   0.4451067115591504    0.8544496293063781    0.2949434615320335 Bi
   0.5903396009545138    0.3816562398405843    0.2785756703670040 Bi
   0.4316961286192074    0.1402878391952510    0.1634682882014320 Bi
   0.8681122890832127    0.1589098283982271    0.6542499029418913 Bi
   0.4534912907407384    0.5265812297618395    0.9547101796456611 Bi
   0.5068306154310768    0.7400749239577645    0.4396739468658903 Bi
   0.7445790938285999    0.2197807415961788    0.8836302597046565 Bi
   0.4100284547949919    0.2511676299769563    0.4122390182953870 Bi
   0.3464776139740930    0.6469174926906168    0.3158473733711941 Bi
   0.9643748480887991    0.4330223322709732    0.3997130978247256 Bi
   0.0088314997847820    0.1796708123738107    0.4101509562609028 Se
   0.9149034590421311    0.7216161113489451    0.8214542285564916 Se
   0.6689103421056548    0.5024587216098088    0.5496956108159652 Se
   0.0288437825410173    0.6410595392972191    0.2615271137715537 Se
   0.4854760291463152    0.3225802691783545    0.3335534039027473 Se
   0.2488275079186539    0.9695409302801237    0.2882657492487574 Se
   0.3562402527043381    0.6427085726032457    0.4256091532794035 Se
   0.1277100676559640    0.6699176221526818    0.0176498449092945 Se
   0.5059690317287537    0.9856643318455917    0.5574144937575322 Se
   0.8068289610480558    0.3352048710199103    0.9050666069314751 Se
   0.0090626390326591    0.0587349402141248    0.6078793981134625 Se
   0.6490992536716481    0.8100293342304304    0.6215968623987141 Se
   0.4859723440526086    0.1414520912440346    0.7437546207566523 Se
   0.2049021562896233    0.2792344358559931    0.6265166797950331 Se
   0.5713094524626676    0.8332971078416412    0.0374634287784719 Se
   0.6883893679978164    0.6685966687714145    0.7074607518911161 Se
   0.6913067746154552    0.4330611838410104    0.0296393663520367 Se
   0.5482927745622066    0.5993329530771890    0.8959788379203343 Se
   0.4922174917145948    0.6607486516238856    0.7390758907576612 Se
   0.9168483967872237    0.1672935655281588    0.5448902077777000 Se
   0.0709605792546417    0.1818749914472585    0.8303499448951847 Se
   0.5500153489980280    0.1593971997601391    0.5091888418378002 Se
   0.3389303067730144    0.1252393310674810    0.0020620327680270 Se
   0.5771875524221501    0.5406066465452947    0.6713385045626608 Se
   0.7065520030990922    0.5251523553526909    0.9098025441094931 Se
   0.2058129564043983    0.1151448298035747    0.3561649500358627 Se
   0.7559463061985462    0.1524621945084860    0.3184556121121164 Se
   0.5657379173855672    0.3782157174717281    0.5972960699934738 Se
   0.7381098039508682    0.5099009556925040    0.4206198700228375 Se
   0.2622096283550102    0.7528182389299898    0.5683165475892424 Se
   0.1472495763682474    0.0471722812869211    0.0879875017024244 Se
   0.8166603841619686    0.3931304035249252    0.2687254113839753 Se
   0.9912897030429915    0.3738772921508993    0.7886663425198935 Se
   0.8689898829438032    0.5941527437388860    0.2210947141261237 Se
   0.2240752102682277    0.8384859508621747    0.6677834870088422 Se
   0.7174685591622489    0.7512987108574209    0.9519560625982201 Se
   0.0670019193807887    0.8575145864982074    0.1750090193247076 Se
   0.4175627166819267    0.4124504259362376    0.7394885996920700 Se
   0.0783359254965506    0.7374243835129995    0.7935657287808459 Se
   0.8313660110151074    0.8161160802029365    0.8865886881057652 Se
   0.2107061351460153    0.4128074286964690    0.1960731112651437 Se
   0.6139599211185431    0.7672623893016246    0.8490689511182226 Se
   0.5973745830910314    0.2283876594117691    0.0759699078796882 Se
   0.1467034520806772    0.4722710516908484    0.8125585122177985 Se
   0.8468602864051282    0.6420437790714967    0.8557948808809643 Se
   0.9608229648287064    0.6422337200805678    0.9401019178584180 Se
   0.2916368922195552    0.6426438199865169    0.6822037823507108 Se
   0.9738267711548890    0.6814004195192533    0.6029473220359233 Se
   0.0779386363839860    0.0231294188534669    0.8653811695950544 Se
   0.9476353381668593    0.5268100223409479    0.7400647577094130 Se
   0.7324113735452770    0.5928404240398494    0.9517027165196721 Se
   0.8840572207800232    0.3733774019497531    0.0835633436501032 Se
   0.3552754924265132    0.7862780744143116    0.0818360954661962 Se
   0.7028696666975603    0.1609409021429533    0.6628023762064228 Se
   0.4811016981263312    0.6263995468698219    0.5467862171397366 Se
   0.2801629454611587    0.6962287687501455    0.8317065722835385 Se
   0.3564638019512588    0.9511296029235722    0.4571834298752152 Se
   0.8338742691436871    0.1903757149714137    0.7859040530183059 Se
   0.9295023515068197    0.5298059100749331    0.8617321688185486 Se
   0.1321419166519462    0.5588971023506193    0.9569943805796665 Se
   0.9524265262706240    0.1957618376309141    0.2333231572658450 Se
   0.9219301396151027    0.6960647287877659    0.1059235868182074 Se
   0.7549797670142472    0.9554982461322076    0.9377850271078260 Se
   0.1010146111669194    0.7242839191581710    0.6373983024913766 Se
   0.0739301671288562    0.8294464855668361    0.3438412978053323 Se
   0.8795921655298564    0.0212650615126116    0.4841075800615492 Se
   0.8026900386514868    0.9146566123408041    0.3961899528420792 Se
   0.6720530768766885    0.0208765458122389    0.6911485334142842 Se
   0.6215677111397436    0.5155473838712542    0.1966084070117532 Se
   0.7246553413178958    0.3722001993776238    0.7656772290052002 Se
   0.4712412195400068    0.0688838336760833    0.4439399679304726 Se
   0.1209733488382822    0.2721949630493510    0.4990386537875872 Se
   0.3281560632277914    0.5214355551524585    0.3241710179196176 Se
   0.5269642789057329    0.2602748696778044    0.9251258956345733 Se
   0.3503271675841969    0.6243188294522702    0.2043076760633680 Se
   0.6729840379315041    0.8943588254168872    0.8010925590499652 Se
   0.5184670356474474    0.8400615978692418    0.4941147501641948 Se
   0.9567077611851265    0.4290137136113498    0.5051639081705458 Se
   0.1212146871499446    0.5518865523794493    0.6146257590115710 Se
   0.1600256826657364    0.9094332345913487    0.0438852615224146 Se
   0.7585138612095983    0.7606446718719425    0.7697266800348946 Se
   0.1995826329630302    0.8315876387600013    0.4587361961630899 Se
   0.2093992318563251    0.6819702425464667    0.3426567005767668 Se
   0.9757420604587456    0.4074601576070058    0.2819868527278405 Se
   0.8761114385287305    0.0456095848031998    0.7264453628739218 Se
   0.6266138758381391    0.9196943659223038    0.1404293227164436 Se
   0.4824667123608443    0.8583736378801426    0.7312589383663337 Se
   0.3833638326848330    0.4748309384721931    0.4579720717003726 Se
   0.1028433270223661    0.6377571558440510    0.4861506935982265 Se
   0.4005255364099758    0.1357426371850017    0.8848847314161763 Se
   0.1798806507927726    0.5421002735711721    0.0968611524149214 Se
   0.9459868848341285    0.8188313732644302    0.9273447169354049 Se
   0.1193023626902118    0.1834389829833145    0.1682136237017188 Se
   0.3715370694757260    0.2888065993449539    0.8026821013815001 Se
   0.1486021382574413    0.2366768577212769    0.2698188857488050 Se
   0.6060852951262172    0.3146135389001561    0.4554917318668463 Se
   0.1109379444486644    0.4820357462935494    0.3192512005232985 Se
   0.7559403765102990    0.2110525205452499    0.4563130635085906 Se
   0.5546517722385397    0.7945016567388674    0.1987291588628242 Se
   0.5526694774574896    0.4458217661776967    0.8820366311460480 Se
   0.0215242346655149    0.8969446132449234    0.6547647675531342 Se
   0.1974301561292845    0.1173084305705392    0.7319454245146574 Se
   0.8673414296110723    0.8079917852240313    0.5839381936906773 Se
   0.1655823935222188    0.8407825103354890    0.8349673814880756 Se
   0.5059506496951873    0.4697241154328495    0.3237546313808428 Se
   0.1913130897334386    0.3128138478392073    0.8713552335762990 Se
   0.5615319895118046    0.5799762375163970    0.0251284168366775 Se
   0.6121217177619008    0.6883850684437318    0.1002547639993424 Se
   0.2729186453295137    0.2917973068696008    0.0045943494099263 Se
   0.3798552361489450    0.3564562481461865    0.6051579708826083 Se
   0.8385824416119904    0.8379679299283443    0.0399533712456205 Se
   0.8420750279896110    0.6770792615628856    0.5049228207732179 Se
   0.8037455231594944    0.3459874767575878    0.3978583593561299 Se
   0.9776336310096131    0.7779724721085658    0.4887168442002933 Se
   0.1001939423135023    0.2968039791950706    0.1516795230948038 Se
   0.7816515047503029    0.5744075124777214    0.0841791380700578 Se
   0.7278455135949072    0.1177345027886146    0.1474229003524902 Se
   0.9516141589807530    0.8449439451705923    0.7924951372876270 Se
   0.4242650433077746    0.0088621294623241    0.1227637458329167 Se
   0.3559408034478528    0.7802949326285717    0.2389343642829756 Se
   0.3284561054531014    0.2442455752486490    0.1426383370722992 Se
   0.4830341835261045    0.3870138713487241    0.0201402368614213 Se
   0.3247708042074459    0.9396295381925396    0.7610924822288962 Se
   0.2678214853121918    0.0045224090891608    0.9249011531455387 Se
   0.8955726753561504    0.0233864435734690    0.3053490387743313 Se
   0.0168978325981409    0.2026748269928794    0.6867435806292078 Se
   0.0555696583307702    0.0259910528287677    0.2066380513633022 Se
   0.6357574551153731    0.6665289018772087    0.5725580512913846 Se
   0.5701318163767671    0.7710396252774704    0.7736698891606819 Se
   0.7860750521827390    0.5012543229386534    0.7139905427543367 Se
   0.9639182620937622    0.9395820529402718    0.9979669794441937 Se
   0.8338624097671927    0.6475866030634809    0.7234297272937862 Se
   0.8717946254847445    0.6608824736984584    0.3704749172467509 Se
   0.6810365545712471    0.2857973294035114    0.3361747185703043 Se
   0.5046318870290026    0.9333571680520778    0.8413173783600686 Se
   0.2725355874687423    0.3475959317571309    0.4913647193438271 Se
   0.5938404888956803    0.6278154707556247    0.3609200924811256 Se
   0.1308112946092670    0.4637064389181875    0.9689220774067887 Se
   0.7154050276522117   -0.0045861256640219    0.2400899492993203 Se
   0.8285019715916937    0.7826950962886520    0.6949323796842105 Se
   0.9521774793642401    0.5615390091131538    0.5420175901451317 Se
   0.3668603243551330    0.7769364302409053    0.4023903938031875 Se
   0.8145494151459536    0.3307986712935721    0.5766606232730327 Se
   0.6812085155304167    0.6537251511293698    0.8432624224469856 Se
   0.0453989384553506    0.6596737581861877    0.8825637544385109 Se
   0.2786354577686714    0.1349841682010519    0.2537947462806446 Se
   0.6915676808983335    0.0590669052958877    0.4472661567681834 Se
   0.3208714412160652    0.5992811509838060    0.9336661102178845 Se
   0.3371478424858961    0.1487967647175251    0.6312362720647579 Se
   0.9063528485896206    0.0610487670519001    0.0772942540741625 Se
   0.6526333478669992    0.5807014668237594    0.7875058540310610 Se
   0.6464308939603931    0.7257084767262044    0.4757062971987319 Se
   0.5660415174238256    0.0852688358131355    0.0440413553966168 Se
   0.8410729106758286    0.8085400240456685    0.2319571315552225 Se
   0.5642554953237588    0.8408774808400244    0.3574120665386506 Se
   0.4582320764944015    0.4015085287614072    0.1932393127897722 Se
   0.7290966778150735    0.9411879178351458    0.5427204212017487 Se
   0.4502009067323486    0.9541945601154013    0.9977871854529661 Se
   0.1880292283821207    0.1085581936299225    0.5107293494444549 Se
   0.8554286859223804    0.4824372125172680    0.8707831617860292 Se
   0.9029729262886976    0.1393372707816724    0.9409681979979693 Se
   0.9339258989392558    0.9282373944893884    0.8325156452440626 Se
   0.0785167809880912    0.9895883404193562    0.3633755063295044 Se
   0.7771508713706528    0.9178165400371688    0.7639896172239047 Se
   0.4757400740131828    0.1929895622666991    0.2614686807244047 Se
   0.6478836675809653    0.1121847718508461    0.8504500958690164 Se
   0.0019109606314359    0.4917918072140200    0.1858456935232443 Se
   0.4592472391223278    0.7342989905455569    0.9273038546646712 Se
   0.6760378273788293    0.3624385265637034    0.1773242755844704 Se
   0.4158270969319615    0.5137904295373464    0.1045077091372900 Se
   0.0827707393366564    0.9653406438749832    0.5039094364590259 Se
   0.1518634667934197    0.4942739908552901    0.4638398937777100 Se
   0.7720216910367959    0.2402913487870778    0.1245882462211696 Se
   0.0007171957935029    0.6390737923842030    0.7435380507217646 Se
   0.7310712640014022    0.6829587991618594    0.2793549138698928 Se
   0.4359121369629904    0.5288993734407301    0.8064291716077664 Se
   0.1069407416012044    0.1598595334435826    0.9870771842937035 Se
   0.0099924734467078    0.3335700832895642    0.6481941144191797 Se
   0.8063783047412660    0.6704226925631663    0.6003403091631231 Se
   0.2529320381233889    0.8427380393606982    0.9316025655458404 Se
   0.2640626559322706    0.9944706877207067    0.6288703465892854 Se
   0.5664820932605950    0.2727142790355158    0.6853379185159737 Se
   0.2908132585220145    0.3174592005633305    0.3677179398403584 Se
   0.8769771730128265    0.9316131642415157    0.1543927778715113 Se
   0.8723105083622539    0.5223809433566989    0.6116305545668020 Se
   0.3287745297119778    0.4959834599369301    0.6272195108516502 Se
   0.4862949190932581    0.0674415770594775    0.3053392318293552 Se
   0.1781711216710953    0.7190087393153326    0.1593060573045129 Se
   0.0161439320343877    0.3561298949578734    0.9685461445160400 Se
   0.9531262294837973    0.5547486180388617    0.0274712551291855 Se
   0.0025762716527755    0.3231224644224302    0.3961172180001735 Se
   0.8336548706785395    0.7227643910856022    0.9793623875792099 Se
