Bi54 Se81
1.0
  12.5739999999999998    0.0000000000000000    0.0000000000000000
   0.0000000000000000   10.8900000000000006    0.0000000000000000
   0.0000000000000000    0.0000000000000000   29.9280000000000008
Bi Se
54 81
direct
   0.2080499400000000    0.6169899000000000    0.8034833600000000 Bi
   0.1053825400000000    0.3449880600000000    0.7307802100000000 Bi
   0.5114203899999999    0.7309173600000000    0.1748379400000000 Bi
   0.0790933700000000    0.4600348900000000    0.9787175900000000 Bi
   0.6765158300000000    0.9006951300000000    0.3834004900000000 Bi
   0.5953403800000000    0.5732819100000000    0.3280456400000000 Bi
   0.8120836600000000    0.7101487600000000    0.0393444300000000 Bi
   0.1334913300000000    0.3771570200000000    0.3149254900000000 Bi
   0.5490377000000000    0.0096180000000000    0.2569884400000000 Bi
   0.3399721600000000    0.9190247900000000    0.3778655400000000 Bi
   0.0114363000000000    0.4185408600000000    0.1909141900000000 Bi
   0.2074876700000000    0.0649816300000000    0.2411100000000000 Bi
   0.4878606600000000    0.2512516100000000    0.8444042400000000 Bi
   0.2016319400000000    0.2616180000000000    0.8824438700000000 Bi
   0.9903332300000000    0.8815537200000000    0.9047096400000000 Bi
   0.9858119900000000    0.0733021100000000    0.7824104500000000 Bi
   0.4236368700000000    0.2866051400000000    0.7128314600000000 Bi
   0.9341188200000000    0.6577300300000000    0.3904931800000000 Bi
   0.1572379500000000    0.9319430700000000    0.9934309000000000 Bi
   0.6622745300000000    0.0687236000000000    0.1013609300000000 Bi
   0.8104000300000000    0.4009109300000000    0.0683172900000000 Bi
   0.3121942100000000    0.5396804400000000    0.9361567800000000 Bi
   0.3579775700000000    0.8843094600000000    0.8907982500000000 Bi
   0.4980173400000000    0.1747438000000000    0.9799475400000000 Bi
   0.7488873900000000    0.3222194700000000    0.3394039000000000 Bi
   0.5007706400000000    0.4309100100000000    0.0727085000000000 Bi
   0.8770200400000000    0.7935004600000000    0.2584750100000000 Bi
   0.3374033700000000    0.4055169900000000    0.1997687800000000 Bi
   0.1496476900000000    0.7417832900000000    0.1947052900000000 Bi
   0.0318426900000000    0.9862947700000000    0.3734970600000000 Bi
   0.9036281200000000    0.1303902700000000    0.2431004400000000 Bi
   0.6551534900000000    0.4811166200000000    0.9275675000000000 Bi
   0.5022109100000000    0.3195629000000000    0.3744660500000000 Bi
   0.0100151100000000    0.3630762200000000    0.4548442900000000 Bi
   0.7678805500000000    0.3895133100000000    0.7799174700000000 Bi
   0.1655344400000000    0.2794040400000000    0.0595305400000000 Bi
   0.7955264800000000    0.6707107400000000    0.1478765700000000 Bi
   0.2271631900000000    0.6721166200000001    0.3028017200000000 Bi
   0.8906911100000000    0.1000064300000000    0.9663034600000000 Bi
   0.2266931800000000    0.6476069800000001    0.0654303700000000 Bi
   0.3450254500000000    0.0400257100000000    0.1172233400000000 Bi
   0.3037394600000000    0.9723590400000000    0.7759930500000000 Bi
   0.7264975299999999    0.9298466500000000    0.9064080500000000 Bi
   0.5044409100000000    0.8056134100000000    0.0152953800000000 Bi
   0.5245180500000000    0.6322240600000000    0.8125651600000000 Bi
   0.8754056000000000    0.7285674900000000    0.7989705300000000 Bi
   0.6605352300000000    0.0069834700000000    0.7646411400000001 Bi
   0.6630077900000000    0.3886216700000000    0.2050982400000000 Bi
   0.0072705600000000    0.1448916400000000    0.5608370100000000 Bi
   0.9705606800000000    0.0282938500000000    0.1223589900000000 Bi
   0.8916923800000000    0.4677741000000000    0.8778211000000000 Bi
   0.7887291200000000    0.1388742000000000    0.4671765600000000 Bi
   0.2296500700000000    0.1537667600000000    0.4579550900000000 Bi
   0.2937776400000000    0.5450459100000000    0.4355062100000000 Bi
   0.8329362200000000    0.9775583100000000    0.0562687100000000 Se
   0.6731223200000001    0.8011974300000000    0.2992375000000000 Se
   0.6639844100000000    0.5590238800000000    0.4943861900000000 Se
   0.5114259600000000    0.4413342500000000    0.4665670900000000 Se
   0.7244313700000000    0.3943902700000000    0.6177566200000000 Se
   0.6627318300000000    0.9164820900000000    0.1758727600000000 Se
   0.4724288200000000    0.1207070700000000    0.7719079100000000 Se
   0.3800421500000000    0.3292066100000000    0.6144029000000000 Se
   0.1389430600000000    0.7737281900000000    0.6540707700000000 Se
   0.7987863800000000    0.1459136800000000    0.8253097400000000 Se
   0.6129386000000000    0.4389816300000000    0.8415296700000000 Se
   0.7066406900000000    0.2051744700000000    0.2612847500000000 Se
   0.3844576100000000    0.6663021099999999    0.3684238800000000 Se
   0.0213830100000000    0.7748292000000000    0.3269476700000000 Se
   0.4227278500000000    0.0037777800000000    0.5860415000000000 Se
   0.8734992800000000    0.9127915500000000    0.7285268000000000 Se
   0.1569874300000000    0.0288558300000000    0.8464972600000000 Se
   0.3367059000000000    0.8927483899999999    0.2751754200000000 Se
   0.2708191500000000    0.1573783300000000    0.9666182200000000 Se
   0.3582591100000000    0.6644765800000000    0.8599264900000000 Se
   0.7197860699999999    0.6560101000000000    0.4180199100000000 Se
   0.6643112799999999    0.7309439900000000    0.6625357500000000 Se
   0.2845721300000000    0.3251597800000000    0.3874752700000000 Se
   0.8354907000000000    0.5413884300000000    0.2243233800000000 Se
   0.9773341800000001    0.5164462800000000    0.5915393600000000 Se
   0.3739192000000000    0.7312194700000000    0.5010501900000000 Se
   0.9154374100000000    0.2553599600000000    0.7103622000000001 Se
   0.5170009500000000    0.2947566600000000    0.5505833999999999 Se
   0.1225807200000000    0.5086877900000000    0.6457317600000000 Se
   0.5899833000000000    0.0225390300000000    0.4913021300000000 Se
   0.2152521100000000    0.1271377400000000    0.6917849500000000 Se
   0.4957428000000000    0.0239577600000000    0.0534125200000000 Se
   0.0087259400000000    0.2992102800000000    0.9176523700000000 Se
   0.0202966400000000    0.6636951300000000    0.8566523000000000 Se
   0.1755813600000000    0.4980440800000000    0.2377128400000000 Se
   0.1721059300000000    0.0449127600000000    0.6232300900000000 Se
   0.1558636900000000    0.0398797100000000    0.0772280100000000 Se
   0.5484412300000000    0.7624031200000000    0.5328809100000000 Se
   0.6778336200000000    0.0766923800000000    0.6624054400000000 Se
   0.3820741200000000    0.1604949500000000    0.1969587000000000 Se
   0.0746071300000000    0.1452433400000000    0.3038890000000000 Se
   0.7502751700000000    0.2845509600000000    0.9881104700000000 Se
   0.8523978000000000    0.2073590400000000    0.6302108400000000 Se
   0.4234992800000000    0.8638292000000000    0.6727646400000000 Se
   0.0701105500000000    0.6016730900000000    0.4716900600000000 Se
   0.2772077300000000    0.8153792500000000    0.5586287100000000 Se
   0.1544584100000000    0.2941147800000000    0.5275541300000000 Se
   0.3722093200000000    0.6833810800000000    0.6432043600000000 Se
   0.8317894100000000    0.6572672200000000    0.6432063600000000 Se
   0.8905821500000000    0.5842093700000000    0.7166289100000000 Se
   0.9961269300000000    0.6990376500000000    0.9891623200000000 Se
   0.3061993000000000    0.4321175400000000    0.1045188500000000 Se
   0.3835533600000000    0.5619393900000000    0.7096782300000000 Se
   0.6773628100000000    0.7277144200000000    0.9623630000000000 Se
   0.9490885999999999    0.4233801700000000    0.3679751400000000 Se
   0.1738539800000000    0.9374196500000000    0.4333159600000000 Se
   0.6464434500000000    0.4010165300000000    0.6876456800000000 Se
   0.9763909700000000    0.2879843900000000    0.1123336000000000 Se
   0.3189382900000000    0.7627235999999999    0.9803381400000000 Se
   0.2363814200000000    0.3687869600000000    0.7985879400000000 Se
   0.6557451900000000    0.3118246100000000    0.1175123600000000 Se
   0.5052823300000000    0.5302314000000000    0.2333029300000000 Se
   0.4337736600000000    0.1183572100000000    0.5191028500000000 Se
   0.4773548600000000    0.4302773200000000    0.9787082300000000 Se
   0.8158255100000000    0.3668319600000000    0.4957130400000000 Se
   0.3201081600000000    0.7979118500000000    0.1401931300000000 Se
   0.5784245300000000    0.6582543600000000    0.0860652200000000 Se
   0.5283863500000000    0.0554756700000000    0.9014474700000000 Se
   0.1571616000000000    0.8026804400000001    0.7340841400000000 Se
   0.2706593000000000    0.4722350800000000    0.5780082200000000 Se
   0.5319349500000000    0.6114628100000000    0.6069493500000001 Se
   0.0320908200000000    0.6963030300000000    0.5503919400000000 Se
   0.9213599500000000    0.8540872400000000    0.6439337700000000 Se
   0.8464227800000000    0.7771625300000000    0.5356746200000000 Se
   0.0400405600000000    0.6390247900000000    0.1256809700000000 Se
   0.8223190700000000    0.0838108400000000    0.3839100500000000 Se
   0.6705948800000000    0.9367061500000000    0.6059415900000000 Se
   0.0137577500000000    0.9465344400000000    0.2029457400000000 Se
   0.6778654400000000    0.8089393900000000    0.8236460799999999 Se
   0.9028980400000000    0.9733636400000000    0.5113535800000000 Se
   0.5130165400000000    0.0614719900000000    0.3554721300000000 Se
