Bi4 Se6
1.0
   0.0000000000000000   11.7272485495750036    0.0000000000000000
   6.1821336714452402    0.0000000000000000    0.0000000000000000
   0.0000000000000000   -3.3044003314857129   -5.9723533347680551
Bi Se
4 6
direct
   0.2577210000000003    0.0000000000000000    0.0613609999999991 Bi
   0.2422789999999997    0.5000000000000000    0.9386390000000009 Bi
   0.7577210000000003    0.5000000000000000    0.0613609999999991 Bi
   0.7422789999999997    0.0000000000000000    0.9386390000000009 Bi
   0.0000000000000000    0.0000000000000000    0.0000000000000000 Se
   0.0991060000000004    0.5000000000000000    0.1701119999999987 Se
   0.4008939999999996    0.0000000000000000    0.8298880000000013 Se
   0.5000000000000000    0.5000000000000000    0.0000000000000000 Se
   0.5991060000000004    0.0000000000000000    0.1701119999999987 Se
   0.9008939999999996    0.5000000000000000    0.8298880000000013 Se
