Bi4 Se4
1.0
   0.0000000000000000    5.9171040000000001    0.0000000000000000
   5.8985059999999985    0.0000000000000000    0.0000000000000000
   0.0000000000000000   -1.2332159999999932  -18.0684089999999991
Bi Se
4 4
direct
   0.2194880000000001    0.5000000000000000    0.4038269999999999 Bi
   0.7805119999999999    0.5000000000000000    0.5961730000000001 Bi
   0.7194880000000001    0.0000000000000000    0.4038269999999999 Bi
   0.2805119999999999    0.0000000000000000    0.5961730000000001 Bi
   0.7407260000000000    0.5000000000000000    0.4294060000000008 Se
   0.2592740000000000    0.5000000000000000    0.5705939999999992 Se
   0.2407260000000000    0.0000000000000000    0.4294060000000008 Se
   0.7592740000000000    0.0000000000000000    0.5705939999999992 Se
