Bi12 Se9
1.0
   2.1782685700000002   -3.7728718300000001    0.0000000000000000
   2.1782685700000002    3.7728718300000001   -0.0000000000000000
  -0.0000000000000000   -0.0000000000000000   40.2992018500000029
Bi Se
12 9
direct
   0.0000000000000000    0.0000000000000000    0.2871996100000000 Bi
   0.6666666700000000    0.3333333300000000    0.0461337300000000 Bi
   0.0000000000000000    0.0000000000000000    0.1443801900000000 Bi
   0.6666666700000000    0.3333333300000000    0.1889531500000000 Bi
   0.6666666700000000    0.3333333300000000    0.6205329400000000 Bi
   0.3333333300000000    0.6666666700000000    0.3794670600000000 Bi
   0.6666666700000000    0.3333333300000000    0.4777135200000000 Bi
   0.3333333300000000    0.6666666700000000    0.5222864800000000 Bi
   0.3333333300000000    0.6666666700000000    0.9538662700000000 Bi
   0.0000000000000000    0.0000000000000000    0.7128003900000000 Bi
   0.3333333300000000    0.6666666700000000    0.8110468500000000 Bi
   0.0000000000000000    0.0000000000000000    0.8556198100000000 Bi
   0.0000000000000000    0.0000000000000000    0.0000000000000000 Se
   0.3333333300000000    0.6666666700000000    0.0847315200000000 Se
   0.3333333300000000    0.6666666700000000    0.2486018100000000 Se
   0.6666666700000000    0.3333333300000000    0.3333333300000000 Se
   0.0000000000000000    0.0000000000000000    0.4180648500000000 Se
   0.0000000000000000    0.0000000000000000    0.5819351500000000 Se
   0.3333333300000000    0.6666666700000000    0.6666666700000000 Se
   0.6666666700000000    0.3333333300000000    0.7513981900000000 Se
   0.6666666700000000    0.3333333300000000    0.9152684800000001 Se
