Bi5 Se2
1.0
   5.9537507980235098   -3.2889527393741953   -0.0331157120290665
   5.9537507980235098    3.2889527393741953   -0.0331157120290665
   4.1669626510097464   -0.0000000000000000    5.3760465039155942
Bi Se
5 2
direct
  -0.0000000000000000   -0.0000000000000000    0.0000000000000000 Bi
   0.5000000000000000    0.5000000000000000    0.5000000000000000 Bi
   0.5000000000000000    0.5000000000000000    0.0000000000000000 Bi
  -0.0000000000000000    0.5000000000000000    0.5000000000000000 Bi
   0.5000000000000000   -0.0000000000000000    0.5000000000000000 Bi
   0.7851896900000001    0.7851896900000001    0.7851896900000001 Se
   0.2148103100000000    0.2148103100000000    0.2148103100000000 Se
