Bi6
1.0
   2.2684830200000001   -3.9291278500000000   -0.0000000000000000
   2.2684830200000001    3.9291278500000000    0.0000000000000000
   0.0000000000000000    0.0000000000000000   11.6281399000000008
Bi
6
direct
   0.3333333300000000    0.6666666700000000    0.9037927600000000 Bi
   0.0000000000000000    0.0000000000000000    0.7628739100000000 Bi
   0.0000000000000000    0.0000000000000000    0.2371260900000000 Bi
   0.6666666700000000    0.3333333300000000    0.0962072400000000 Bi
   0.6666666700000000    0.3333333300000000    0.5704594200000001 Bi
   0.3333333300000000    0.6666666700000000    0.4295405800000000 Bi
