Bi4 Se4
1.0
   5.7574291400000002   -0.0000000000000000    0.0000000000000000
   0.0000000000000000    5.7574291400000002    0.0000000000000000
  -0.0000000000000000   -0.0000000000000000    5.7574291400000002
Bi Se
4 4
direct
   0.0000000000000000    0.0000000000000000    0.0000000000000000 Bi
   0.0000000000000000    0.5000000000000000    0.5000000000000000 Bi
   0.5000000000000000    0.0000000000000000    0.5000000000000000 Bi
   0.5000000000000000    0.5000000000000000    0.0000000000000000 Bi
   0.5000000000000000    0.0000000000000000    0.0000000000000000 Se
   0.5000000000000000    0.5000000000000000    0.5000000000000000 Se
   0.0000000000000000    0.0000000000000000    0.5000000000000000 Se
   0.0000000000000000    0.5000000000000000    0.0000000000000000 Se
