Nb4 Se8
1.0
   1.7498501843559962   -3.0308294249383518    0.0000000000000000
   1.7498501843559962    3.0308294249383518    0.0000000000000000
   0.0000000000000000    0.0000000000000000   26.8296405699999987
Nb Se
4 8
direct
   0.0000000000000000    0.0000000000000000    0.0000000000000000 Nb
   0.0000000000000000    0.0000000000000000    0.2487579999999990 Nb
   0.3333333333333333    0.6666666666666666    0.5000000000000000 Nb
   0.0000000000000000    0.0000000000000000    0.7512420000000010 Nb
   0.3333333333333333    0.6666666666666666    0.9376655900000000 Se
   0.6666666666666666    0.3333333333333333    0.6888089800000000 Se
   0.6666666666666667    0.3333333333333334    0.3111910200000000 Se
   0.3333333333333333    0.6666666666666667    0.0623344100000000 Se
   0.6666666666666666    0.3333333333333333    0.8135912800000000 Se
   0.6666666666666667    0.3333333333333334    0.1864087200000000 Se
   0.0000000000000000    0.0000000000000000    0.4376700400000000 Se
   0.0000000000000000    0.0000000000000000    0.5623299600000000 Se
