Si
 1.0000000000000000
    16.2899999999999991    0.0000000000000000    0.0000000000000000
     0.0000000000000000   16.2899999999999991    0.0000000000000000
     0.0000000000000000    0.0000000000000000   16.2899999999999991
 Si 
 216
Cartesian
  0.0000000000000000  0.0000000000000000  0.0000000000000000
  1.3574999999999999  1.3574999999999999  1.3574999999999999
  0.0000000000000000  2.7149999999999999  2.7149999999999999
  1.3574999999999999  4.0724999999999998  4.0724999999999998
  2.7149999999999999  0.0000000000000000  2.7149999999999999
  4.0724999999999998  1.3574999999999999  4.0724999999999998
  2.7149999999999999  2.7149999999999999  0.0000000000000000
  4.0724999999999998  4.0724999999999998  1.3574999999999999
  0.0000000000000000  0.0000000000000000  5.4299999999999997
  1.3574999999999999  1.3574999999999999  6.7874999999999996
  0.0000000000000000  2.7149999999999999  8.1449999999999996
  1.3574999999999999  4.0724999999999998  9.5024999999999995
  2.7149999999999999  0.0000000000000000  8.1449999999999996
  4.0724999999999998  1.3574999999999999  9.5024999999999995
  2.7149999999999999  2.7149999999999999  5.4299999999999997
  4.0724999999999998  4.0724999999999998  6.7874999999999996
  0.0000000000000000  0.0000000000000000 10.8599999999999994
  1.3574999999999999  1.3574999999999999 12.2174999999999994
  0.0000000000000000  2.7149999999999999 13.5749999999999993
  1.3574999999999999  4.0724999999999998 14.9324999999999992
  2.7149999999999999  0.0000000000000000 13.5749999999999993
  4.0724999999999998  1.3574999999999999 14.9324999999999992
  2.7149999999999999  2.7149999999999999 10.8599999999999994
  4.0724999999999998  4.0724999999999998 12.2174999999999994
  0.0000000000000000  5.4299999999999997  0.0000000000000000
  1.3574999999999999  6.7874999999999996  1.3574999999999999
  0.0000000000000000  8.1449999999999996  2.7149999999999999
  1.3574999999999999  9.5024999999999995  4.0724999999999998
  2.7149999999999999  5.4299999999999997  2.7149999999999999
  4.0724999999999998  6.7874999999999996  4.0724999999999998
  2.7149999999999999  8.1449999999999996  0.0000000000000000
  4.0724999999999998  9.5024999999999995  1.3574999999999999
  0.0000000000000000  5.4299999999999997  5.4299999999999997
  1.3574999999999999  6.7874999999999996  6.7874999999999996
  0.0000000000000000  8.1449999999999996  8.1449999999999996
  1.3574999999999999  9.5024999999999995  9.5024999999999995
  2.7149999999999999  5.4299999999999997  8.1449999999999996
  4.0724999999999998  6.7874999999999996  9.5024999999999995
  2.7149999999999999  8.1449999999999996  5.4299999999999997
  4.0724999999999998  9.5024999999999995  6.7874999999999996
  0.0000000000000000  5.4299999999999997 10.8599999999999994
  1.3574999999999999  6.7874999999999996 12.2174999999999994
  0.0000000000000000  8.1449999999999996 13.5749999999999993
  1.3574999999999999  9.5024999999999995 14.9324999999999992
  2.7149999999999999  5.4299999999999997 13.5749999999999993
  4.0724999999999998  6.7874999999999996 14.9324999999999992
  2.7149999999999999  8.1449999999999996 10.8599999999999994
  4.0724999999999998  9.5024999999999995 12.2174999999999994
  0.0000000000000000 10.8599999999999994  0.0000000000000000
  1.3574999999999999 12.2174999999999994  1.3574999999999999
  0.0000000000000000 13.5749999999999993  2.7149999999999999
  1.3574999999999999 14.9324999999999992  4.0724999999999998
  2.7149999999999999 10.8599999999999994  2.7149999999999999
  4.0724999999999998 12.2174999999999994  4.0724999999999998
  2.7149999999999999 13.5749999999999993  0.0000000000000000
  4.0724999999999998 14.9324999999999992  1.3574999999999999
  0.0000000000000000 10.8599999999999994  5.4299999999999997
  1.3574999999999999 12.2174999999999994  6.7874999999999996
  0.0000000000000000 13.5749999999999993  8.1449999999999996
  1.3574999999999999 14.9324999999999992  9.5024999999999995
  2.7149999999999999 10.8599999999999994  8.1449999999999996
  4.0724999999999998 12.2174999999999994  9.5024999999999995
  2.7149999999999999 13.5749999999999993  5.4299999999999997
  4.0724999999999998 14.9324999999999992  6.7874999999999996
  0.0000000000000000 10.8599999999999994 10.8599999999999994
  1.3574999999999999 12.2174999999999994 12.2174999999999994
  0.0000000000000000 13.5749999999999993 13.5749999999999993
  1.3574999999999999 14.9324999999999992 14.9324999999999992
  2.7149999999999999 10.8599999999999994 13.5749999999999993
  4.0724999999999998 12.2174999999999994 14.9324999999999992
  2.7149999999999999 13.5749999999999993 10.8599999999999994
  4.0724999999999998 14.9324999999999992 12.2174999999999994
  5.4299999999999997  0.0000000000000000  0.0000000000000000
  6.7874999999999996  1.3574999999999999  1.3574999999999999
  5.4299999999999997  2.7149999999999999  2.7149999999999999
  6.7874999999999996  4.0724999999999998  4.0724999999999998
  8.1449999999999996  0.0000000000000000  2.7149999999999999
  9.5024999999999995  1.3574999999999999  4.0724999999999998
  8.1449999999999996  2.7149999999999999  0.0000000000000000
  9.5024999999999995  4.0724999999999998  1.3574999999999999
  5.4299999999999997  0.0000000000000000  5.4299999999999997
  6.7874999999999996  1.3574999999999999  6.7874999999999996
  5.4299999999999997  2.7149999999999999  8.1449999999999996
  6.7874999999999996  4.0724999999999998  9.5024999999999995
  8.1449999999999996  0.0000000000000000  8.1449999999999996
  9.5024999999999995  1.3574999999999999  9.5024999999999995
  8.1449999999999996  2.7149999999999999  5.4299999999999997
  9.5024999999999995  4.0724999999999998  6.7874999999999996
  5.4299999999999997  0.0000000000000000 10.8599999999999994
  6.7874999999999996  1.3574999999999999 12.2174999999999994
  5.4299999999999997  2.7149999999999999 13.5749999999999993
  6.7874999999999996  4.0724999999999998 14.9324999999999992
  8.1449999999999996  0.0000000000000000 13.5749999999999993
  9.5024999999999995  1.3574999999999999 14.9324999999999992
  8.1449999999999996  2.7149999999999999 10.8599999999999994
  9.5024999999999995  4.0724999999999998 12.2174999999999994
  5.4299999999999997  5.4299999999999997  0.0000000000000000
  6.7874999999999996  6.7874999999999996  1.3574999999999999
  5.4299999999999997  8.1449999999999996  2.7149999999999999
  6.7874999999999996  9.5024999999999995  4.0724999999999998
  8.1449999999999996  5.4299999999999997  2.7149999999999999
  9.5024999999999995  6.7874999999999996  4.0724999999999998
  8.1449999999999996  8.1449999999999996  0.0000000000000000
  9.5024999999999995  9.5024999999999995  1.3574999999999999
  5.4299999999999997  5.4299999999999997  5.4299999999999997
  6.7874999999999996  6.7874999999999996  6.7874999999999996
  5.4299999999999997  8.1449999999999996  8.1449999999999996
  6.7874999999999996  9.5024999999999995  9.5024999999999995
  8.1449999999999996  5.4299999999999997  8.1449999999999996
  9.5024999999999995  6.7874999999999996  9.5024999999999995
  8.1449999999999996  8.1449999999999996  5.4299999999999997
  9.5024999999999995  9.5024999999999995  6.7874999999999996
  5.4299999999999997  5.4299999999999997 10.8599999999999994
  6.7874999999999996  6.7874999999999996 12.2174999999999994
  5.4299999999999997  8.1449999999999996 13.5749999999999993
  6.7874999999999996  9.5024999999999995 14.9324999999999992
  8.1449999999999996  5.4299999999999997 13.5749999999999993
  9.5024999999999995  6.7874999999999996 14.9324999999999992
  8.1449999999999996  8.1449999999999996 10.8599999999999994
  9.5024999999999995  9.5024999999999995 12.2174999999999994
  5.4299999999999997 10.8599999999999994  0.0000000000000000
  6.7874999999999996 12.2174999999999994  1.3574999999999999
  5.4299999999999997 13.5749999999999993  2.7149999999999999
  6.7874999999999996 14.9324999999999992  4.0724999999999998
  8.1449999999999996 10.8599999999999994  2.7149999999999999
  9.5024999999999995 12.2174999999999994  4.0724999999999998
  8.1449999999999996 13.5749999999999993  0.0000000000000000
  9.5024999999999995 14.9324999999999992  1.3574999999999999
  5.4299999999999997 10.8599999999999994  5.4299999999999997
  6.7874999999999996 12.2174999999999994  6.7874999999999996
  5.4299999999999997 13.5749999999999993  8.1449999999999996
  6.7874999999999996 14.9324999999999992  9.5024999999999995
  8.1449999999999996 10.8599999999999994  8.1449999999999996
  9.5024999999999995 12.2174999999999994  9.5024999999999995
  8.1449999999999996 13.5749999999999993  5.4299999999999997
  9.5024999999999995 14.9324999999999992  6.7874999999999996
  5.4299999999999997 10.8599999999999994 10.8599999999999994
  6.7874999999999996 12.2174999999999994 12.2174999999999994
  5.4299999999999997 13.5749999999999993 13.5749999999999993
  6.7874999999999996 14.9324999999999992 14.9324999999999992
  8.1449999999999996 10.8599999999999994 13.5749999999999993
  9.5024999999999995 12.2174999999999994 14.9324999999999992
  8.1449999999999996 13.5749999999999993 10.8599999999999994
  9.5024999999999995 14.9324999999999992 12.2174999999999994
 10.8599999999999994  0.0000000000000000  0.0000000000000000
 12.2174999999999994  1.3574999999999999  1.3574999999999999
 10.8599999999999994  2.7149999999999999  2.7149999999999999
 12.2174999999999994  4.0724999999999998  4.0724999999999998
 13.5749999999999993  0.0000000000000000  2.7149999999999999
 14.9324999999999992  1.3574999999999999  4.0724999999999998
 13.5749999999999993  2.7149999999999999  0.0000000000000000
 14.9324999999999992  4.0724999999999998  1.3574999999999999
 10.8599999999999994  0.0000000000000000  5.4299999999999997
 12.2174999999999994  1.3574999999999999  6.7874999999999996
 10.8599999999999994  2.7149999999999999  8.1449999999999996
 12.2174999999999994  4.0724999999999998  9.5024999999999995
 13.5749999999999993  0.0000000000000000  8.1449999999999996
 14.9324999999999992  1.3574999999999999  9.5024999999999995
 13.5749999999999993  2.7149999999999999  5.4299999999999997
 14.9324999999999992  4.0724999999999998  6.7874999999999996
 10.8599999999999994  0.0000000000000000 10.8599999999999994
 12.2174999999999994  1.3574999999999999 12.2174999999999994
 10.8599999999999994  2.7149999999999999 13.5749999999999993
 12.2174999999999994  4.0724999999999998 14.9324999999999992
 13.5749999999999993  0.0000000000000000 13.5749999999999993
 14.9324999999999992  1.3574999999999999 14.9324999999999992
 13.5749999999999993  2.7149999999999999 10.8599999999999994
 14.9324999999999992  4.0724999999999998 12.2174999999999994
 10.8599999999999994  5.4299999999999997  0.0000000000000000
 12.2174999999999994  6.7874999999999996  1.3574999999999999
 10.8599999999999994  8.1449999999999996  2.7149999999999999
 12.2174999999999994  9.5024999999999995  4.0724999999999998
 13.5749999999999993  5.4299999999999997  2.7149999999999999
 14.9324999999999992  6.7874999999999996  4.0724999999999998
 13.5749999999999993  8.1449999999999996  0.0000000000000000
 14.9324999999999992  9.5024999999999995  1.3574999999999999
 10.8599999999999994  5.4299999999999997  5.4299999999999997
 12.2174999999999994  6.7874999999999996  6.7874999999999996
 10.8599999999999994  8.1449999999999996  8.1449999999999996
 12.2174999999999994  9.5024999999999995  9.5024999999999995
 13.5749999999999993  5.4299999999999997  8.1449999999999996
 14.9324999999999992  6.7874999999999996  9.5024999999999995
 13.5749999999999993  8.1449999999999996  5.4299999999999997
 14.9324999999999992  9.5024999999999995  6.7874999999999996
 10.8599999999999994  5.4299999999999997 10.8599999999999994
 12.2174999999999994  6.7874999999999996 12.2174999999999994
 10.8599999999999994  8.1449999999999996 13.5749999999999993
 12.2174999999999994  9.5024999999999995 14.9324999999999992
 13.5749999999999993  5.4299999999999997 13.5749999999999993
 14.9324999999999992  6.7874999999999996 14.9324999999999992
 13.5749999999999993  8.1449999999999996 10.8599999999999994
 14.9324999999999992  9.5024999999999995 12.2174999999999994
 10.8599999999999994 10.8599999999999994  0.0000000000000000
 12.2174999999999994 12.2174999999999994  1.3574999999999999
 10.8599999999999994 13.5749999999999993  2.7149999999999999
 12.2174999999999994 14.9324999999999992  4.0724999999999998
 13.5749999999999993 10.8599999999999994  2.7149999999999999
 14.9324999999999992 12.2174999999999994  4.0724999999999998
 13.5749999999999993 13.5749999999999993  0.0000000000000000
 14.9324999999999992 14.9324999999999992  1.3574999999999999
 10.8599999999999994 10.8599999999999994  5.4299999999999997
 12.2174999999999994 12.2174999999999994  6.7874999999999996
 10.8599999999999994 13.5749999999999993  8.1449999999999996
 12.2174999999999994 14.9324999999999992  9.5024999999999995
 13.5749999999999993 10.8599999999999994  8.1449999999999996
 14.9324999999999992 12.2174999999999994  9.5024999999999995
 13.5749999999999993 13.5749999999999993  5.4299999999999997
 14.9324999999999992 14.9324999999999992  6.7874999999999996
 10.8599999999999994 10.8599999999999994 10.8599999999999994
 12.2174999999999994 12.2174999999999994 12.2174999999999994
 10.8599999999999994 13.5749999999999993 13.5749999999999993
 12.2174999999999994 14.9324999999999992 14.9324999999999992
 13.5749999999999993 10.8599999999999994 13.5749999999999993
 14.9324999999999992 12.2174999999999994 14.9324999999999992
 13.5749999999999993 13.5749999999999993 10.8599999999999994
 14.9324999999999992 14.9324999999999992 12.2174999999999994
