Bi128 Se192
1.0
  16.5549779999999984    0.0000000000000000    0.0000000000000000
   0.0000000000000000   23.2215640000000008    0.0000000000000000
   0.0000000000000000    0.0000000000000000   24.4724530000000016
Bi Se
128 192
direct
   0.0625002340685684    0.4826720543026300    0.4312522328677064 Bi
   0.0625002340685684    0.4826720543026300    0.9312511500175318 Bi
   0.0625002340685684    0.9826728294442183    0.4312522328677064 Bi
   0.0625002340685684    0.9826728294442183    0.9312511500175318 Bi
   0.3124999622470051    0.4826720543026300    0.4312522328677064 Bi
   0.3124999622470051    0.4826720543026300    0.9312511500175318 Bi
   0.3124999622470051    0.9826728294442183    0.4312522328677064 Bi
   0.3124999622470051    0.9826728294442183    0.9312511500175318 Bi
   0.5625002944733603    0.4826720543026300    0.4312522328677064 Bi
   0.5625002944733603    0.4826720543026300    0.9312511500175318 Bi
   0.5625002944733603    0.9826728294442183    0.4312522328677064 Bi
   0.5625002944733603    0.9826728294442183    0.9312511500175318 Bi
   0.8124988145559603    0.4826720543026300    0.4312522328677064 Bi
   0.8124988145559603    0.4826720543026300    0.9312511500175318 Bi
   0.8124988145559603    0.9826728294442183    0.4312522328677064 Bi
   0.8124988145559603    0.9826728294442183    0.9312511500175318 Bi
   0.1875000981577868    0.0173287639023797    0.0687487273956558 Bi
   0.1875000981577868    0.0173287639023797    0.5687496876590180 Bi
   0.1875000981577868    0.5173294959805463    0.0687483187729485 Bi
   0.1875000981577868    0.5173294959805463    0.5687496876590180 Bi
   0.4374998263362235    0.0173287639023797    0.0687487273956558 Bi
   0.4374998263362235    0.0173287639023797    0.5687496876590180 Bi
   0.4374998263362235    0.5173294959805463    0.0687487273956558 Bi
   0.4374998263362235    0.5173294959805463    0.5687496876590180 Bi
   0.6874971383229868    0.0173287639023797    0.0687483187729485 Bi
   0.6874971383229868    0.0173287639023797    0.5687496876590180 Bi
   0.6874971383229868    0.5173294959805463    0.0687487273956558 Bi
   0.6874971383229868    0.5173294959805463    0.5687496876590180 Bi
   0.9375004907889338    0.0173287639023797    0.0687483187729485 Bi
   0.9375004907889338    0.0173287639023797    0.5687496876590180 Bi
   0.9375004907889338    0.5173294959805463    0.0687483187729485 Bi
   0.9375004907889338    0.5173294959805463    0.5687496876590180 Bi
   0.1875000981577868    0.2326712360976203    0.3187485945932759 Bi
   0.1875000981577868    0.2326712360976203    0.8187491462339308 Bi
   0.1875000981577868    0.7326724418734242    0.3187485945932759 Bi
   0.1875000981577868    0.7326724418734242    0.8187491462339308 Bi
   0.4374998263362235    0.2326712360976203    0.3187485945932759 Bi
   0.4374998263362235    0.2326712360976203    0.8187491462339308 Bi
   0.4374998263362235    0.7326724418734242    0.3187485945932759 Bi
   0.4374998263362235    0.7326724418734242    0.8187491462339308 Bi
   0.6874971383229868    0.2326712360976203    0.3187485945932759 Bi
   0.6874971383229868    0.2326712360976203    0.8187491462339308 Bi
   0.6874971383229868    0.7326724418734242    0.3187485945932759 Bi
   0.6874971383229868    0.7326724418734242    0.8187491462339308 Bi
   0.9375004907889338    0.2326712360976203    0.3187485945932759 Bi
   0.9375004907889338    0.2326712360976203    0.8187491462339308 Bi
   0.9375004907889338    0.7326724418734242    0.3187485945932759 Bi
   0.9375004907889338    0.7326724418734242    0.8187491462339308 Bi
   0.0625002340685684    0.2673286777755366    0.1812515484246716 Bi
   0.0625002340685684    0.2673286777755366    0.6812516914426191 Bi
   0.0625002340685684    0.7673298835513405    0.1812515484246716 Bi
   0.0625002340685684    0.7673298835513405    0.6812516914426191 Bi
   0.3124999622470051    0.2673286777755366    0.1812515484246716 Bi
   0.3124999622470051    0.2673286777755366    0.6812516914426191 Bi
   0.3124999622470051    0.7673298835513405    0.1812515484246716 Bi
   0.3124999622470051    0.7673298835513405    0.6812516914426191 Bi
   0.5624996904254419    0.2673286777755366    0.1812515484246716 Bi
   0.5625002944733603    0.2673286777755366    0.6812516914426191 Bi
   0.5624996904254419    0.7673298835513405    0.1812515484246716 Bi
   0.5624996904254419    0.7673298835513405    0.6812516914426191 Bi
   0.8124988145559603    0.2673286777755366    0.1812515484246716 Bi
   0.8124988145559603    0.2673286777755366    0.6812516914426191 Bi
   0.8124988145559603    0.7673298835513405    0.1812515484246716 Bi
   0.8124988145559603    0.7673298835513405    0.6812516914426191 Bi
   0.0625002340685684    0.0836093555111103    0.2419949483609183 Bi
   0.0625002340685684    0.0836093555111103    0.7419934568880364 Bi
   0.0625002340685684    0.5836084081158358    0.2419949483609183 Bi
   0.0625002340685684    0.5836084081158358    0.7419934568880364 Bi
   0.3124999622470051    0.0836093555111103    0.2419949483609183 Bi
   0.3124999622470051    0.0836093555111103    0.7419934568880364 Bi
   0.3124999622470051    0.5836084081158358    0.2419949483609183 Bi
   0.3124999622470051    0.5836084081158358    0.7419934568880364 Bi
   0.5624996904254419    0.0836093555111103    0.2419949483609183 Bi
   0.5625002944733603    0.0836093555111103    0.7419934568880364 Bi
   0.5625002944733603    0.5836084081158358    0.2419949483609183 Bi
   0.5625002944733603    0.5836084081158358    0.7419934568880364 Bi
   0.8124988145559603    0.0836093555111103    0.2419949483609183 Bi
   0.8124988145559603    0.0836093555111103    0.7419934568880364 Bi
   0.8124988145559603    0.5836084081158358    0.2419949483609183 Bi
   0.8124988145559603    0.5836084081158358    0.7419934568880364 Bi
   0.1875000981577868    0.4163905583620466    0.2580051946570293 Bi
   0.1875000981577868    0.4163905583620466    0.7580032945614401 Bi
   0.1875000981577868    0.9163896109667722    0.2580051946570293 Bi
   0.1875000981577868    0.9163896109667722    0.7580032945614401 Bi
   0.4374998263362235    0.4163905583620466    0.2580051946570293 Bi
   0.4374998263362235    0.4163905583620466    0.7580032945614401 Bi
   0.4374998263362235    0.9163896109667722    0.2580051946570293 Bi
   0.4374998263362235    0.9163896109667722    0.7580032945614401 Bi
   0.6874971383229868    0.4163905583620466    0.2580051946570293 Bi
   0.6874971383229868    0.4163905583620466    0.7580032945614401 Bi
   0.6874971383229868    0.9163896109667722    0.2580051946570293 Bi
   0.6874971383229868    0.9163896109667722    0.7580032945614401 Bi
   0.9375004907889338    0.4163905583620466    0.2580051946570293 Bi
   0.9375004907889338    0.4163905583620466    0.7580032945614401 Bi
   0.9375004907889338    0.9163896109667722    0.2580051946570293 Bi
   0.9375004907889338    0.9163896109667722    0.7580032945614401 Bi
   0.1875000981577868    0.3336093124476887    0.5080038359865273 Bi
   0.1875000981577868    0.3336093124476887    1.0080068393634261 Bi
   0.1875000981577868    0.8336087956866299    0.5080038359865273 Bi
   0.1875000981577868    0.8336087956866299    1.0080068393634261 Bi
   0.4374998263362235    0.3336093124476887    0.5080038359865273 Bi
   0.4374998263362235    0.3336093124476887    1.0080068393634261 Bi
   0.4374998263362235    0.8336087956866299    0.5080038359865273 Bi
   0.4374998263362235    0.8336087956866299    1.0080068393634261 Bi
   0.6874971383229868    0.3336093124476887    0.5080038359865273 Bi
   0.6874971383229868    0.3336093124476887    1.0080068393634261 Bi
   0.6874971383229868    0.8336087956866299    0.5080038359865273 Bi
   0.6874971383229868    0.8336087956866299    1.0080068393634261 Bi
   0.9375004907889338    0.3336093124476887    0.5080038359865273 Bi
   0.9375004907889338    0.3336093124476887    1.0080068393634261 Bi
   0.9375004907889338    0.8336087956866299    0.5080038359865273 Bi
   0.9375004907889338    0.8336087956866299    1.0080068393634261 Bi
   0.0625002340685684    0.1663906014254682   -0.0080050822857848 Bi
   0.0625002340685684    0.1663906014254682    0.4919939983131237 Bi
   0.0625002340685684    0.6663892233959781   -0.0080050822857848 Bi
   0.0625002340685684    0.6663892233959781    0.4919939983131237 Bi
   0.3124999622470051    0.1663906014254682   -0.0080051231480555 Bi
   0.3124999622470051    0.1663906014254682    0.4919939983131237 Bi
   0.3124999622470051    0.6663892233959781   -0.0080050822857848 Bi
   0.3124999622470051    0.6663892233959781    0.4919939983131237 Bi
   0.5625002944733603    0.1663906014254682   -0.0080051231480555 Bi
   0.5625002944733603    0.1663906014254682    0.4919939983131237 Bi
   0.5625002944733603    0.6663892233959781   -0.0080050822857848 Bi
   0.5625002944733603    0.6663892233959781    0.4919939983131237 Bi
   0.8124988145559603    0.1663906014254682   -0.0080050822857848 Bi
   0.8124988145559603    0.1663906014254682    0.4919939983131237 Bi
   0.8124988145559603    0.6663892233959781   -0.0080050822857848 Bi
   0.8124988145559603    0.6663892233959781    0.4919939983131237 Bi
   0.0625002340685684    0.1524255644451855    0.3471552279618230 Se
   0.0625002340685684    0.1524255644451855    0.8471565968478925 Se
   0.0625002340685684    0.6524237557814797    0.3471552279618230 Se
   0.0625002340685684    0.6524237557814797    0.8471565968478925 Se
   0.3124999622470051    0.1524255644451855    0.3471552279618230 Se
   0.3124999622470051    0.1524255644451855    0.8471565968478925 Se
   0.3124999622470051    0.6524237557814797    0.3471552279618230 Se
   0.3124999622470051    0.6524237557814797    0.8471565968478925 Se
   0.5624996904254419    0.1524255644451855    0.3471552279618230 Se
   0.5625002944733603    0.1524255644451855    0.8471565968478925 Se
   0.5625002944733603    0.6524237557814797    0.3471552279618230 Se
   0.5625002944733603    0.6524237557814797    0.8471565968478925 Se
   0.8124988145559603    0.1524255644451855    0.3471552279618230 Se
   0.8124988145559603    0.1524255644451855    0.8471565968478925 Se
   0.8124988145559603    0.6524237557814797    0.3471552279618230 Se
   0.8124988145559603    0.6524237557814797    0.8471565968478925 Se
   0.1875000981577868    0.3475743494279714    0.1528449150561245 Se
   0.1875000981577868    0.3475743494279714    0.6528442408286573 Se
   0.1875000981577868    0.8475742633011282    0.1528449150561245 Se
   0.1875000981577868    0.8475742633011282    0.6528442408286573 Se
   0.4374998263362235    0.3475743494279714    0.1528449150561245 Se
   0.4374998263362235    0.3475743494279714    0.6528442408286573 Se
   0.4374998263362235    0.8475742633011282    0.1528449150561245 Se
   0.4374998263362235    0.8475742633011282    0.6528442408286573 Se
   0.6874971383229868    0.3475743494279714    0.1528449150561245 Se
   0.6874971383229868    0.3475743494279714    0.6528442408286573 Se
   0.6874971383229868    0.8475742633011282    0.1528449150561245 Se
   0.6874971383229868    0.8475742633011282    0.6528442408286573 Se
   0.9375004907889338    0.3475743494279714    0.1528449150561245 Se
   0.9375004907889338    0.3475743494279714    0.6528442408286573 Se
   0.9375004907889338    0.8475742633011282    0.1528449150561245 Se
   0.9375004907889338    0.8475742633011282    0.6528442408286573 Se
   0.1875000981577868    0.4024255213817640    0.4028447822537446 Se
   0.1875000981577868    0.4024255213817640    0.9028436994035701 Se
   0.1875000981577868    0.9024241433522738    0.4028447822537446 Se
   0.1875000981577868    0.9024241433522738    0.9028436994035701 Se
   0.4374998263362235    0.4024255213817640    0.4028447822537446 Se
   0.4374998263362235    0.4024255213817640    0.9028436994035701 Se
   0.4374998263362235    0.9024241433522738    0.4028447822537446 Se
   0.4374998263362235    0.9024241433522738    0.9028436994035701 Se
   0.6874971383229868    0.4024255213817640    0.4028447822537446 Se
   0.6874971383229868    0.4024255213817640    0.9028436994035701 Se
   0.6874971383229868    0.9024241433522738    0.4028447822537446 Se
   0.6874971383229868    0.9024241433522738    0.9028436994035701 Se
   0.9375004907889338    0.4024255213817640    0.4028447822537446 Se
   0.9375004907889338    0.4024255213817640    0.9028436994035701 Se
   0.9375004907889338    0.9024241433522738    0.4028447822537446 Se
   0.9375004907889338    0.9024241433522738    0.9028436994035701 Se
   0.0625002340685684    0.0975743924913929    0.0971553607642029 Se
   0.0625002340685684    0.0975743924913929    0.5971571382729798 Se
   0.0625002340685684    0.5975738757303342    0.0971553607642029 Se
   0.0625002340685684    0.5975738757303342    0.5971571382729798 Se
   0.3124999622470051    0.0975743924913929    0.0971553607642029 Se
   0.3124999622470051    0.0975743924913929    0.5971571382729798 Se
   0.3124999622470051    0.5975738757303342    0.0971553607642029 Se
   0.3124999622470051    0.5975738757303342    0.5971571382729798 Se
   0.5625002944733603    0.0975743924913929    0.0971553607642029 Se
   0.5625002944733603    0.0975743924913929    0.5971571382729798 Se
   0.5625002944733603    0.5975738757303342    0.0971553607642029 Se
   0.5625002944733603    0.5975738757303342    0.5971571382729798 Se
   0.8124988145559603    0.0975743924913929    0.0971553607642029 Se
   0.8124988145559603    0.0975743924913929    0.5971571382729798 Se
   0.8124988145559603    0.5975738757303342    0.0971553607642029 Se
   0.8124988145559603    0.5975738757303342    0.5971571382729798 Se
   0.0625002340685684    0.4715530788537758    0.1904868302331605 Se
   0.0625002340685684    0.4715530788537758    0.6904865646284006 Se
   0.0625002340685684    0.9715538539953640    0.1904868302331605 Se
   0.0625002340685684    0.9715538539953640    0.6904865646284006 Se
   0.3124999622470051    0.4715530788537758    0.1904868302331605 Se
   0.3124999622470051    0.4715530788537758    0.6904865646284006 Se
   0.3124999622470051    0.9715538539953640    0.1904868302331605 Se
   0.3124999622470051    0.9715538539953640    0.6904865646284006 Se
   0.5625002944733603    0.4715530788537758    0.1904868302331605 Se
   0.5625002944733603    0.4715530788537758    0.6904865646284006 Se
   0.5625002944733603    0.9715538539953640    0.1904868302331605 Se
   0.5625002944733603    0.9715538539953640    0.6904865646284006 Se
   0.8124988145559603    0.4715530788537758    0.1904868302331605 Se
   0.8124988145559603    0.4715530788537758    0.6904865646284006 Se
   0.8124988145559603    0.9715538539953640    0.1904868302331605 Se
   0.8124988145559603    0.9715538539953640    0.6904865646284006 Se
   0.1875000981577868    0.0284463182583223    0.3095133127847870 Se
   0.1875000981577868    0.0284463182583223    0.8095142730481493 Se
   0.1875000981577868    0.5284441650872439    0.3095133127847870 Se
   0.1875000981577868    0.5284441650872439    0.8095142730481493 Se
   0.4374998263362235    0.0284463182583223    0.3095133127847870 Se
   0.4374998263362235    0.0284463182583223    0.8095142730481493 Se
   0.4374998263362235    0.5284441650872439    0.3095133127847870 Se
   0.4374998263362235    0.5284441650872439    0.8095142730481493 Se
   0.6874971383229868    0.0284463182583223    0.3095133127847870 Se
   0.6874971383229868    0.0284463182583223    0.8095142730481493 Se
   0.6874971383229868    0.5284441650872439    0.3095133127847870 Se
   0.6874971383229868    0.5284441650872439    0.8095142730481493 Se
   0.9375004907889338    0.0284463182583223    0.3095133127847870 Se
   0.9375004907889338    0.0284463182583223    0.8095142730481493 Se
   0.9375004907889338    0.5284484714294008    0.3095133127847870 Se
   0.9375004907889338    0.5284441650872439    0.8095142730481493 Se
   0.1875000981577868    0.2215535525514130    0.0595130369644596 Se
   0.1875000981577868    0.2215535525514130    0.5595148144732365 Se
   0.1875000981577868    0.7215534664245700    0.0595130369644596 Se
   0.1875000981577868    0.7215534664245700    0.5595148144732365 Se
   0.4374998263362235    0.2215535525514130    0.0595130369644596 Se
   0.4374998263362235    0.2215535525514130    0.5595148144732365 Se
   0.4374998263362235    0.7215534664245700    0.0595130369644596 Se
   0.4374998263362235    0.7215534664245700    0.5595148144732365 Se
   0.6874971383229868    0.2215535525514130    0.0595130369644596 Se
   0.6874971383229868    0.2215535525514130    0.5595148144732365 Se
   0.6874971383229868    0.7215534664245700    0.0595130369644596 Se
   0.6874971383229868    0.7215534664245700    0.5595148144732365 Se
   0.9375004907889338    0.2215535525514130    0.0595130369644596 Se
   0.9375004907889338    0.2215535525514130    0.5595148144732365 Se
   0.9375004907889338    0.7215534664245700    0.0595130369644596 Se
   0.9375004907889338    0.7215534664245700    0.5595148144732365 Se
   0.0625002340685684    0.2784463613217439    0.4404871060534879 Se
   0.0625002340685684    0.2784463613217439    0.9404860232033133 Se
   0.0625002340685684    0.7784445526580380    0.4404871060534879 Se
   0.0625002340685684    0.7784445526580380    0.9404860232033133 Se
   0.3124999622470051    0.2784463613217439    0.4404871060534879 Se
   0.3124999622470051    0.2784463613217439    0.9404860232033133 Se
   0.3124999622470051    0.7784445526580380    0.4404871060534879 Se
   0.3124999622470051    0.7784445526580380    0.9404860232033133 Se
   0.5625002944733603    0.2784463613217439    0.4404871060534879 Se
   0.5625002944733603    0.2784463613217439    0.9404860232033133 Se
   0.5625002944733603    0.7784445526580380    0.4404871060534879 Se
   0.5625002944733603    0.7784445526580380    0.9404860232033133 Se
   0.8124988145559603    0.2784463613217439    0.4404871060534879 Se
   0.8124988145559603    0.2784463613217439    0.9404860232033133 Se
   0.8124988145559603    0.7784445526580380    0.4404871060534879 Se
   0.8124988145559603    0.7784445526580380    0.9404860232033133 Se
   0.0625002340685684    0.4327443233367055    0.0376311683998331 Se
   0.0625002340685684    0.4327443233367055    0.5376330684954221 Se
   0.0625002340685684    0.9327407921361369    0.0376311683998331 Se
   0.0625002340685684    0.9327407921361369    0.5376330684954221 Se
   0.3124999622470051    0.4327443233367055    0.0376311683998331 Se
   0.3124999622470051    0.4327443233367055    0.5376330684954221 Se
   0.3124999622470051    0.9327407921361369    0.0376311683998331 Se
   0.3124999622470051    0.9327407921361369    0.5376330684954221 Se
   0.5625002944733603    0.4327443233367055    0.0376311683998331 Se
   0.5625002944733603    0.4327443233367055    0.5376330684954221 Se
   0.5625002944733603    0.9327407921361369    0.0376311683998331 Se
   0.5625002944733603    0.9327407921361369    0.5376330684954221 Se
   0.8124988145559603    0.4327443233367055    0.0376311683998331 Se
   0.8124988145559603    0.4327443233367055    0.5376330684954221 Se
   0.8124988145559603    0.9327407921361369    0.0376311683998331 Se
   0.8124988145559603    0.9327407921361369    0.5376330684954221 Se
   0.1875000981577868    0.0672573130733141    0.4623688520313023 Se
   0.1875000981577868    0.0672573130733141    0.9623677691811278 Se
   0.1875000981577868    0.5672572269464710    0.4623688520313023 Se
   0.1875000981577868    0.5672572269464710    0.9623677691811278 Se
   0.4374998263362235    0.0672573130733141    0.4623688520313023 Se
   0.4374998263362235    0.0672573130733141    0.9623677691811278 Se
   0.4374998263362235    0.5672572269464710    0.4623688520313023 Se
   0.4374998263362235    0.5672572269464710    0.9623677691811278 Se
   0.6874971383229868    0.0672573130733141    0.4623688520313023 Se
   0.6874971383229868    0.0672573130733141    0.9623677691811278 Se
   0.6874971383229868    0.5672572269464710    0.4623688520313023 Se
   0.6874971383229868    0.5672572269464710    0.9623677691811278 Se
   0.9375004907889338    0.0672573130733141    0.4623688520313023 Se
   0.9375004907889338    0.0672573130733141    0.9623677691811278 Se
   0.9375004907889338    0.5672572269464710    0.4623688520313023 Se
   0.9375004907889338    0.5672572269464710    0.9623677691811278 Se
   0.1875000981577868    0.1827426438632643    0.2123689848336822 Se
   0.1875000981577868    0.1827426438632643    0.7123683106062150 Se
   0.1875000981577868    0.6827447109074997    0.2123689848336822 Se
   0.1875000981577868    0.6827447109074997    0.7123683106062150 Se
   0.4374998263362235    0.1827426438632643    0.2123689848336822 Se
   0.4374998263362235    0.1827426438632643    0.7123683106062150 Se
   0.4374998263362235    0.6827447109074997    0.2123689848336822 Se
   0.4374998263362235    0.6827447109074997    0.7123683106062150 Se
   0.6874971383229868    0.1827426438632643    0.2123689848336822 Se
   0.6874971383229868    0.1827426438632643    0.7123683106062150 Se
   0.6874971383229868    0.6827447109074997    0.2123689848336822 Se
   0.6874971383229868    0.6827447109074997    0.7123683106062150 Se
   0.9375004907889338    0.1827426438632643    0.2123689848336822 Se
   0.9375004907889338    0.1827426438632643    0.7123683106062150 Se
   0.9375004907889338    0.6827447109074997    0.2123689848336822 Se
   0.9375004907889338    0.6827447109074997    0.7123683106062150 Se
   0.0625002340685684    0.3172572700098926    0.2876311581842654 Se
   0.0625002340685684    0.3172572700098926    0.7876325270703349 Se
   0.0625002340685684    0.8172576145172652    0.2876311581842654 Se
   0.0625002340685684    0.8172576145172652    0.7876325270703349 Se
   0.3124999622470051    0.3172572700098926    0.2876311581842654 Se
   0.3124999622470051    0.3172572700098926    0.7876325270703349 Se
   0.3124999622470051    0.8172576145172652    0.2876311581842654 Se
   0.3124999622470051    0.8172576145172652    0.7876325270703349 Se
   0.5625002944733603    0.3172572700098926    0.2876311581842654 Se
   0.5625002944733603    0.3172572700098926    0.7876325270703349 Se
   0.5625002944733603    0.8172576145172652    0.2876311581842654 Se
   0.5625002944733603    0.8172576145172652    0.7876325270703349 Se
   0.8124988145559603    0.3172572700098926    0.2876311581842654 Se
   0.8124988145559603    0.3172572700098926    0.7876325270703349 Se
   0.8124988145559603    0.8172576145172652    0.2876311581842654 Se
   0.8124988145559603    0.8172576145172652    0.7876325270703349 Se
