Bi8 Se4
1.0
   2.0799781799999999   -3.6026278899999999    0.0000000000000000
   2.0799781799999999    3.6026278899999999   -0.0000000000000000
  -0.0000000000000000   -0.0000000000000000   24.1999932999999992
Bi Se
8 4
direct
   0.3333333300000000    0.6666666700000000    0.5404511400000001 Bi
   0.6666666700000000    0.3333333300000000    0.4595488600000000 Bi
   0.3333333300000000    0.6666666700000000    0.2949783200000000 Bi
   0.6666666700000000    0.3333333300000000    0.7050216800000000 Bi
   0.3333333300000000    0.6666666700000000    0.0526916300000000 Bi
   0.6666666700000000    0.3333333300000000    0.9473083700000000 Bi
   0.0000000000000000    0.0000000000000000    0.1333616600000000 Bi
   0.0000000000000000    0.0000000000000000    0.8666383400000000 Bi
   0.3333333300000000    0.6666666700000000    0.7776291800000000 Se
   0.6666666700000000    0.3333333300000000    0.2223708200000000 Se
   0.0000000000000000    0.0000000000000000    0.3644642000000000 Se
   0.0000000000000000    0.0000000000000000    0.6355358000000000 Se
