Bi54 Se81
1.0
  12.5739999999999998    0.0000000000000000    0.0000000000000000
   0.0000000000000000   10.8900000000000006    0.0000000000000000
   0.0000000000000000    0.0000000000000000   29.9280000000000008
Bi Se
54 81
direct
   0.8856322599999999    0.8128053300000000    0.8719092500000000 Bi
   0.9612295199999999    0.9504178100000000    0.5340771200000000 Bi
   0.6979298600000000    0.5081809000000000    0.7098082100000001 Bi
   0.3341132500000000    0.8806584000000000    0.6374899800000000 Bi
   0.2263257500000000    0.0643957800000000    0.7167174600000000 Bi
   0.2588126300000000    0.5915693300000000    0.6497911700000000 Bi
   0.0591888000000000    0.8998429800000000    0.4252345600000000 Bi
   0.2445021500000000    0.0795766800000000    0.3881993500000000 Bi
   0.8199411500000000    0.4040431600000000    0.4560074200000000 Bi
   0.2256529300000000    0.5019660200000000    0.7535461800000000 Bi
   0.7448894500000000    0.8311404999999999    0.4243407500000000 Bi
   0.3150628300000000    0.4015096400000000    0.3824886400000000 Bi
   0.9295530500000000    0.1089008300000000    0.8494650500000001 Bi
   0.3745299800000000    0.3788319600000000    0.5762072300000000 Bi
   0.2979616700000000    0.6922066100000001    0.8688251800000000 Bi
   0.2082408100000000    0.7628090000000000    0.5106245000000000 Bi
   0.8497606200000000    0.6716042200000000    0.6437914300000001 Bi
   0.4422331800000000    0.4257529800000000    0.8578829200000000 Bi
   0.7209646900000000    0.4296446300000000    0.6032825400000000 Bi
   0.6314943500000000    0.9152543600000000    0.8213839900000000 Bi
   0.5483267100000000    0.2062589500000000    0.8019466700000000 Bi
   0.6194122800000000    0.5634113900000000    0.4196144100000000 Bi
   0.5143741100000000    0.5779375600000000    0.6365537300000000 Bi
   0.3769588000000000    0.9803122100000000    0.8379995300000000 Bi
   0.7949188800000000    0.3264297500000000    0.7902760000000000 Bi
   0.8980085900000000    0.2504279200000000    0.5458741000000000 Bi
   0.3538937500000000    0.3127483900000000    0.6850163700000000 Bi
   0.7693526300000000    0.6237731900000000    0.8076099300000000 Bi
   0.1983839700000000    0.0713168000000000    0.4990965000000000 Bi
   0.6205845400000000    0.0662754800000000    0.4740965000000000 Bi
   0.0021401300000000    0.6179825500000000    0.4635067500000000 Bi
   0.4720272000000000    0.9485922900000000    0.7305058800000001 Bi
   0.9491410800000000    0.5373287400000000    0.7340704400000000 Bi
   0.5992015300000000    0.3761616200000000    0.5091376000000000 Bi
   0.2294528400000000    0.6848466500000000    0.4030159000000000 Bi
   0.6196254200000000    0.8535509600000000    0.6266553100000000 Bi
   0.4932288900000000    0.8214683200000000    0.4409446000000000 Bi
   0.8906942900000000    0.0615739200000000    0.7438569200000000 Bi
   0.0800159100000000    0.7823957800000000    0.6107645000000000 Bi
   0.8578590699999999    0.9753122100000000    0.6394526900000000 Bi
   0.1251375900000000    0.5044288300000001    0.5590393600000000 Bi
   0.2885207600000000    0.2389100100000000    0.8031625900000000 Bi
   0.6806322600000000    0.1345840200000000    0.5815931600000001 Bi
   0.2084984900000000    0.1440036700000000    0.6100260600000000 Bi
   0.8658939100000000    0.1053884300000000    0.4437967800000000 Bi
   0.4603674200000000    0.7578209400000000    0.5477088300000000 Bi
   0.4311014800000000    0.0710633600000000    0.5565069499999999 Bi
   0.0701813300000000    0.3263627200000000    0.4667672400000000 Bi
   0.4064609500000000    0.2164765800000000    0.4562901000000000 Bi
   0.0532424000000000    0.5983654700000000    0.8318775100000000 Bi
   0.1232781900000000    0.8936822800000001    0.8378909400000000 Bi
   0.7249872800000000    0.8254361800000000    0.7274615700000000 Bi
   0.3907626800000000    0.5422470200000000    0.4733009200000000 Bi
   0.0457706400000000    0.2871377400000000    0.7751493600000000 Bi
   0.3111873700000000    0.0911147800000000    0.1357040200000000 Se
   0.7072498800000000    0.3500532600000000    0.1781495600000000 Se
   0.7462756500000000    0.0039155200000000    0.8948773700000000 Se
   0.5894337500000000    0.3980532600000000    0.3458139500000000 Se
   0.6453189100000000    0.5907144200000000    0.2408821200000000 Se
   0.9956314600000000    0.2382920100000000    0.1841269000000000 Se
   0.0517377100000000    0.4509439900000000    0.9923586599999999 Se
   0.4210442200000000    0.8314159800000001    0.0388522500000000 Se
   0.3471194500000000    0.5799118500000000    0.1073967500000000 Se
   0.9927684100000000    0.9536124900000000    0.0015731100000000 Se
   0.8275831100000000    0.3135124000000000    0.9228421500000000 Se
   0.8102258600000000    0.7756290200000000    0.0845556000000000 Se
   0.9222705600000000    0.5106905400000000    0.2061213600000000 Se
   0.3507284900000000    0.0168567500000000    0.9388786400000000 Se
   0.5767011300000000    0.1442488500000000    0.0051386700000000 Se
   0.4140655300000000    0.2070973400000000    0.0387780700000000 Se
   0.1846055400000000    0.7501652900000000    0.9697704500000000 Se
   0.6497304000000000    0.1670128600000000    0.1263579300000000 Se
   0.9733354500000000    0.6751671299999999    0.1620415700000000 Se
   0.8414052800000000    0.1848934800000000    0.3445302100000000 Se
   0.4843240000000000    0.4990229600000000    0.0002462600000000 Se
   0.4854732000000000    0.4139779600000000    0.1104293600000000 Se
   0.7556107800000000    0.4886299400000000    0.1212005500000000 Se
   0.5609821900000000    0.7260753000000000    0.2893811800000000 Se
   0.5877755700000000    0.6341588600000000    0.0429073100000000 Se
   0.1375346000000000    0.7345013800000000    0.1995469100000000 Se
   0.3674526800000000    0.0741138700000000    0.2622036200000000 Se
   0.2021671700000000    0.4824187300000000    0.1946946000000000 Se
   0.8426729800000000    0.4890560100000000    0.3135154400000000 Se
   0.8203666300000000    0.8296730900000000    0.3315590800000000 Se
   0.0346779100000000    0.4922194700000000    0.9177385700000000 Se
   0.2912844000000000    0.5421992700000000    0.0352950400000000 Se
   0.4949904600000000    0.7246014700000000    0.9239678600000000 Se
   0.8351622399999999    0.5770918300000000    0.0166990800000000 Se
   0.0833036400000000    0.1558310400000000    0.0694460000000000 Se
   0.9372769200000000    0.9554738300000000    0.2267806100000000 Se
   0.8265317300000000    0.3008071600000000    0.2822600900000000 Se
   0.5889605500000000    0.6827658400000000    0.1614257600000000 Se
   0.0187331000000000    0.0370165300000000    0.2891549700000000 Se
   0.2051900700000000    0.2642185500000000    0.1157581500000000 Se
   0.4182877400000000    0.8175509600000000    0.1797276800000000 Se
   0.2979807500000000    0.3571643700000000    0.9363539200000000 Se
   0.3692070900000000    0.8663388400000001    0.3638285200000000 Se
   0.0333736300000000    0.3193636400000000    0.6196100600000000 Se
   0.0719436900000000    0.7242773200000000    0.2846040500000000 Se
   0.1771536500000000    0.2653627200000000    0.9816255699999999 Se
   0.2906370300000000    0.0225583100000000    0.0092919700000000 Se
   0.7817289600000000    0.9508521599999999    0.0420315400000000 Se
   0.1054795600000000    0.2378980700000000    0.2450487800000000 Se
   0.3791816400000000    0.4937006400000000    0.2208570600000000 Se
   0.5089072700000000    0.0192718100000000    0.2087810700000000 Se
   0.8272522700000000    0.1057612500000000    0.1055824000000000 Se
   0.9221966000000000    0.3815151500000000    0.0968567900000000 Se
   0.0619277900000000    0.7685188200000000    0.0218180300000000 Se
   0.5484237300000000    0.2219706200000000    0.9360411700000000 Se
   0.8553706100000000    0.7633921000000000    0.2622574200000000 Se
   0.0537601400000000    0.5617869599999999    0.1019423300000000 Se
   0.0604739900000000    0.5141616200000000    0.2900768500000000 Se
   0.3454620600000000    0.4095849400000000    0.2885284700000000 Se
   0.7907125800000000    0.0835004600000000    0.2227693100000000 Se
   0.5153395900000000    0.9408209400000000    0.0879420600000000 Se
   0.8205312500000000    0.7411294800000000    0.5096802300000000 Se
   0.6102823300000000    0.2855757600000000    0.2820936900000000 Se
   0.0751837100000000    0.8911616200000000    0.7442228000000000 Se
   0.7159551500000000    0.8436363600000000    0.1582457900000000 Se
   0.6393812600000000    0.9420798900000000    0.2593905400000000 Se
   0.4400994100000000    0.3167584900000000    0.1849181400000000 Se
   0.6828471400000000    0.3081101900000000    0.0337730600000000 Se
   0.0849005900000000    0.1642470200000000    0.9285765800000000 Se
   0.8379004300000000    0.7142598700000000    0.9589371200000000 Se
   0.1810935300000000    0.8337263499999999    0.0864057100000000 Se
   0.6022236399999999    0.0559972500000000    0.3197169900000000 Se
   0.2208700500000000    0.0333149700000000    0.2141335900000000 Se
   0.5529227000000000    0.1883590400000000    0.7059365800000000 Se
   0.3746079200000000    0.7300293800000000    0.2527970500000000 Se
   0.0581756000000000    0.9644765800000000    0.1222347000000000 Se
   0.1174073500000000    0.2851138700000000    0.3715112900000000 Se
   0.5895673600000000    0.8300431600000000    0.9741813700000000 Se
   0.8664911700000000    0.2418218500000000    0.9945753100000000 Se
   0.4160919400000000    0.6070376500000000    0.7947036200000001 Se
   0.7005058100000000    0.4525656600000000    0.9384973900000000 Se
