Bi4 Se4
1.0
   6.1601179999999998    0.0000000000000000    0.0000000000000004
   0.0000000000000010    6.1601179999999998    0.0000000000000004
   0.0000000000000000    0.0000000000000000    6.1601179999999998
Bi Se
4 4
direct
   0.0000000000000000    0.0000000000000000    0.0000000000000000 Bi
   0.0000000000000000    0.5000000000000000    0.5000000000000000 Bi
   0.5000000000000000    0.0000000000000000    0.5000000000000000 Bi
   0.5000000000000000    0.5000000000000000    0.0000000000000000 Bi
   0.5000000000000000    0.0000000000000000    0.0000000000000000 Se
   0.5000000000000000    0.5000000000000000    0.5000000000000000 Se
   0.0000000000000000    0.0000000000000000    0.5000000000000000 Se
   0.0000000000000000    0.5000000000000000    0.0000000000000000 Se
