Bi144 Se216                             
    1.000000000000000     
    16.7654660000000000    0.0000000000000000    0.0000000000000000
     0.0000000000000000   21.7789789999999996    0.0000000000000000
     0.0000000000000000    0.0000000000000000   29.9286870000000000
  Bi              Se            
   144   216
Direct
  0.1249998061491411  0.6111122105402629  0.7317694892529047
  0.2500002087624651  0.7777775073845277  0.7317694892529047
  0.1249998061491411  0.2777779435849581  0.7317694892529047
  0.2500002087624651  0.4444446179042671  0.7317694892529047
  0.3750000149116062  0.6111122105402629  0.7317694892529047
  0.4999998210607473  0.7777775073845277  0.7317694892529047
  0.1249998061491411  0.9444428042287925  0.7317694892529047
  0.2500002087624651  0.1111112692656562  0.7317694892529047
  0.3750000149116062  0.2777779435849581  0.7317694892529047
  0.4999998210607473  0.4444446179042671  0.7317694892529047
  0.6249990307456983  0.6111122105402629  0.7317694892529047
  0.7500000298232123  0.7777775073845277  0.7317694892529047
  0.3750000149116062  0.9444428042287925  0.7317694892529047
  0.4999998210607473  0.1111112692656562  0.7317694892529047
  0.6249990307456983  0.2777779435849581  0.7317694892529047
  0.7500000298232123  0.4444446179042671  0.7317694892529047
  0.8750010289007193  0.6111122105402629  0.7317694892529047
  0.0000000000000000  0.7777775073845277  0.7317694892529047
  0.6249990307456983  0.9444428042287925  0.7317694892529047
  0.7500000298232123  0.1111112692656562  0.7317694892529047
  0.8750010289007193  0.2777779435849581  0.7317694892529047
  0.0000000000000000  0.4444446179042671  0.7317694892529047
  0.8750010289007193  0.9444428042287925  0.7317694892529047
  0.0000000000000000  0.1111112692656562  0.7317694892529047
  0.1249998061491411  0.6111122105402629  0.9348990151154979
  0.2500002087624651  0.7777775073845277  0.9348990151154979
  0.1249998061491411  0.2777779435849581  0.9348990151154979
  0.2500002087624651  0.4444446179042671  0.9348990151154979
  0.3750000149116062  0.6111122105402629  0.9348990151154979
  0.4999998210607473  0.7777775073845277  0.9348990151154979
  0.1249998061491411  0.9444428042287925  0.9348990151154979
  0.2500002087624651  0.1111112692656562  0.9348990151154979
  0.3750000149116062  0.2777779435849581  0.9348990151154979
  0.4999998210607473  0.4444446179042671  0.9348990151154979
  0.6249990307456983  0.6111122105402629  0.9348990151154979
  0.7500000298232123  0.7777775073845277  0.9348990151154979
  0.3750000149116062  0.9444428042287925  0.9348990151154979
  0.4999998210607473  0.1111112692656562  0.9348990151154979
  0.6249990307456983  0.2777779435849581  0.9348990151154979
  0.7500000298232123  0.4444446179042671  0.9348990151154979
  0.8750010289007193  0.6111122105402629  0.9348990151154979
  0.0000000000000000  0.7777775073845277  0.9348990151154979
  0.6249990307456983  0.9444428042287925  0.9348990151154979
  0.7500000298232123  0.1111112692656562  0.9348990151154979
  0.8750010289007193  0.2777779435849581  0.9348990151154979
  0.0000000000000000  0.4444446179042671  0.9348990151154979
  0.8750010289007193  0.9444428042287925  0.9348990151154979
  0.0000000000000000  0.1111112692656562  0.9348990151154979
  0.1249998061491411  0.7222239389642624  0.0651017533779523
  0.2500002087624651  0.8888892358085272  0.0651017533779523
  0.1249998061491411  0.3888887536922638  0.0651017533779523
  0.2500002087624651  0.5555540505365286  0.0651017533779523
  0.3750000149116062  0.7222239389642624  0.0651017533779523
  0.4999998210607473  0.8888892358085272  0.0651017533779523
  0.1249998061491411  0.0555554050536529  0.0651017533779523
  0.2500002087624651  0.2222220793729619  0.0651017533779523
  0.3750000149116062  0.3888887536922638  0.0651017533779523
  0.4999998210607473  0.5555540505365286  0.0651017533779523
  0.6249990307456983  0.7222239389642624  0.0651017533779523
  0.7500000298232123  0.8888892358085272  0.0651017533779523
  0.3750000149116062  0.0555554050536529  0.0651017533779523
  0.4999998210607473  0.2222220793729619  0.0651017533779523
  0.6249990307456983  0.3888887536922638  0.0651017533779523
  0.7500000298232123  0.5555540505365286  0.0651017533779523
  0.8750010289007193  0.7222239389642624  0.0651017533779523
  0.0000000000000000  0.8888892358085272  0.0651017533779523
  0.6249990307456983  0.0555554050536529  0.0651017533779523
  0.7500000298232123  0.2222220793729619  0.0651017533779523
  0.8750010289007193  0.3888887536922638  0.0651017533779523
  0.0000000000000000  0.5555540505365286  0.0651017533779523
  0.8750010289007193  0.0555554050536529  0.0651017533779523
  0.0000000000000000  0.2222220793729619  0.0651017533779523
  0.1249998061491411  0.7222239389642624  0.2682316133681368
  0.2500002087624651  0.8888892358085272  0.2682316133681368
  0.1249998061491411  0.3888887536922638  0.2682316133681368
  0.2500002087624651  0.5555540505365286  0.2682316133681368
  0.3750000149116062  0.7222239389642624  0.2682316133681368
  0.4999998210607473  0.8888892358085272  0.2682316133681368
  0.1249998061491411  0.0555554050536529  0.2682316133681368
  0.2500002087624651  0.2222220793729619  0.2682316133681368
  0.3750000149116062  0.3888887536922638  0.2682316133681368
  0.4999998210607473  0.5555540505365286  0.2682316133681368
  0.6249990307456983  0.7222239389642624  0.2682316133681368
  0.7500000298232123  0.8888892358085272  0.2682316133681368
  0.3750000149116062  0.0555554050536529  0.2682316133681368
  0.4999998210607473  0.2222220793729619  0.2682316133681368
  0.6249990307456983  0.3888887536922638  0.2682316133681368
  0.7500000298232123  0.5555540505365286  0.2682316133681368
  0.8750010289007193  0.7222239389642624  0.2682316133681368
  0.0000000000000000  0.8888892358085272  0.2682316133681368
  0.6249990307456983  0.0555554050536529  0.2682316133681368
  0.7500000298232123  0.2222220793729619  0.2682316133681368
  0.8750010289007193  0.3888887536922638  0.2682316133681368
  0.0000000000000000  0.5555540505365286  0.2682316133681368
  0.8750010289007193  0.0555554050536529  0.2682316133681368
  0.0000000000000000  0.2222220793729619  0.2682316133681368
  0.0000000000000000  0.6666657789605281  0.3984337836136973
  0.1249998061491411  0.8333310758047929  0.3984337836136973
  0.0000000000000000  0.3333333486386110  0.3984337836136973
  0.1249998061491411  0.5000004821162634  0.3984337836136973
  0.2500002087624651  0.6666657789605281  0.3984337836136973
  0.3750000149116062  0.8333310758047929  0.3984337836136973
  0.0000000000000000  0.0000000000000000  0.3984337836136973
  0.1249998061491411  0.1666666743193090  0.3984337836136973
  0.2500002087624651  0.3333333486386110  0.3984337836136973
  0.3750000149116062  0.5000004821162634  0.3984337836136973
  0.4999998210607473  0.6666657789605281  0.3984337836136973
  0.6249990307456983  0.8333310758047929  0.3984337836136973
  0.2500002087624651  0.0000000000000000  0.3984337836136973
  0.3750000149116062  0.1666666743193090  0.3984337836136973
  0.4999998210607473  0.3333333486386110  0.3984337836136973
  0.6249990307456983  0.5000004821162634  0.3984337836136973
  0.7500000298232123  0.6666657789605281  0.3984337836136973
  0.8750010289007193  0.8333310758047929  0.3984337836136973
  0.4999998210607473  0.0000000000000000  0.3984337836136973
  0.6249990307456983  0.1666666743193090  0.3984337836136973
  0.7500000298232123  0.3333333486386110  0.3984337836136973
  0.8750010289007193  0.5000004821162634  0.3984337836136973
  0.7500000298232123  0.0000000000000000  0.3984337836136973
  0.8750010289007193  0.1666666743193090  0.3984337836136973
  0.0000000000000000  0.6666657789605281  0.6015666507521686
  0.1249998061491411  0.8333310758047929  0.6015666507521686
  0.0000000000000000  0.3333333486386110  0.6015666507521686
  0.1249998061491411  0.5000004821162634  0.6015666507521686
  0.2500002087624651  0.6666657789605281  0.6015666507521686
  0.3750000149116062  0.8333310758047929  0.6015666507521686
  0.0000000000000000  0.0000000000000000  0.6015666507521686
  0.1249998061491411  0.1666666743193090  0.6015666507521686
  0.2500002087624651  0.3333333486386110  0.6015666507521686
  0.3750000149116062  0.5000004821162634  0.6015666507521686
  0.4999998210607473  0.6666657789605281  0.6015666507521686
  0.6249990307456983  0.8333310758047929  0.6015666507521686
  0.2500002087624651  0.0000000000000000  0.6015666507521686
  0.3750000149116062  0.1666666743193090  0.6015666507521686
  0.4999998210607473  0.3333333486386110  0.6015666507521686
  0.6249990307456983  0.5000004821162634  0.6015666507521686
  0.7500000298232123  0.6666657789605281  0.6015666507521686
  0.8750010289007193  0.8333310758047929  0.6015666507521686
  0.4999998210607473  0.0000000000000000  0.6015666507521686
  0.6249990307456983  0.1666666743193090  0.6015666507521686
  0.7500000298232123  0.3333333486386110  0.6015666507521686
  0.8750010289007193  0.5000004821162634  0.6015666507521686
  0.7500000298232123  0.0000000000000000  0.6015666507521686
  0.8750010289007193  0.1666666743193090  0.6015666507521686
  0.0000000000000000  0.6666657789605281  0.0000000000000000
  0.1249998061491411  0.8333310758047929  0.0000000000000000
  0.0000000000000000  0.3333333486386110  0.0000000000000000
  0.1249998061491411  0.5000004821162634  0.0000000000000000
  0.2500002087624651  0.6666657789605281  0.0000000000000000
  0.3750000149116062  0.8333310758047929  0.0000000000000000
  0.0000000000000000  0.0000000000000000  0.0000000000000000
  0.1249998061491411  0.1666666743193090  0.0000000000000000
  0.2500002087624651  0.3333333486386110  0.0000000000000000
  0.3750000149116062  0.5000004821162634  0.0000000000000000
  0.4999998210607473  0.6666657789605281  0.0000000000000000
  0.6249990307456983  0.8333310758047929  0.0000000000000000
  0.2500002087624651  0.0000000000000000  0.0000000000000000
  0.3750000149116062  0.1666666743193090  0.0000000000000000
  0.4999998210607473  0.3333333486386110  0.0000000000000000
  0.6249990307456983  0.5000004821162634  0.0000000000000000
  0.7500000298232123  0.6666657789605281  0.0000000000000000
  0.8750010289007193  0.8333310758047929  0.0000000000000000
  0.4999998210607473  0.0000000000000000  0.0000000000000000
  0.6249990307456983  0.1666666743193090  0.0000000000000000
  0.7500000298232123  0.3333333486386110  0.0000000000000000
  0.8750010289007193  0.5000004821162634  0.0000000000000000
  0.7500000298232123  0.0000000000000000  0.0000000000000000
  0.8750010289007193  0.1666666743193090  0.0000000000000000
  0.1249998061491411  0.7222239389642624  0.8823808408300735
  0.2500002087624651  0.8888892358085272  0.8823808408300735
  0.1249998061491411  0.3888887536922638  0.8823808408300735
  0.2500002087624651  0.5555540505365286  0.8823808408300735
  0.3750000149116062  0.7222239389642624  0.8823808408300735
  0.4999998210607473  0.8888892358085272  0.8823808408300735
  0.1249998061491411  0.0555554050536529  0.8823808408300735
  0.2500002087624651  0.2222220793729619  0.8823808408300735
  0.3750000149116062  0.3888887536922638  0.8823808408300735
  0.4999998210607473  0.5555540505365286  0.8823808408300735
  0.6249990307456983  0.7222239389642624  0.8823808408300735
  0.7500000298232123  0.8888892358085272  0.8823808408300735
  0.3750000149116062  0.0555554050536529  0.8823808408300735
  0.4999998210607473  0.2222220793729619  0.8823808408300735
  0.6249990307456983  0.3888887536922638  0.8823808408300735
  0.7500000298232123  0.5555540505365286  0.8823808408300735
  0.8750010289007193  0.7222239389642624  0.8823808408300735
  0.0000000000000000  0.8888892358085272  0.8823808408300735
  0.6249990307456983  0.0555554050536529  0.8823808408300735
  0.7500000298232123  0.2222220793729619  0.8823808408300735
  0.8750010289007193  0.3888887536922638  0.8823808408300735
  0.0000000000000000  0.5555540505365286  0.8823808408300735
  0.8750010289007193  0.0555554050536529  0.8823808408300735
  0.0000000000000000  0.2222220793729619  0.8823808408300735
  0.0000000000000000  0.6666657789605281  0.7842843222624509
  0.1249998061491411  0.8333310758047929  0.7842843222624509
  0.0000000000000000  0.3333333486386110  0.7842843222624509
  0.1249998061491411  0.5000004821162634  0.7842843222624509
  0.2500002087624651  0.6666657789605281  0.7842843222624509
  0.3750000149116062  0.8333310758047929  0.7842843222624509
  0.0000000000000000  0.0000000000000000  0.7842843222624509
  0.1249998061491411  0.1666666743193090  0.7842843222624509
  0.2500002087624651  0.3333333486386110  0.7842843222624509
  0.3750000149116062  0.5000004821162634  0.7842843222624509
  0.4999998210607473  0.6666657789605281  0.7842843222624509
  0.6249990307456983  0.8333310758047929  0.7842843222624509
  0.2500002087624651  0.0000000000000000  0.7842843222624509
  0.3750000149116062  0.1666666743193090  0.7842843222624509
  0.4999998210607473  0.3333333486386110  0.7842843222624509
  0.6249990307456983  0.5000004821162634  0.7842843222624509
  0.7500000298232123  0.6666657789605281  0.7842843222624509
  0.8750010289007193  0.8333310758047929  0.7842843222624509
  0.4999998210607473  0.0000000000000000  0.7842843222624509
  0.6249990307456983  0.1666666743193090  0.7842843222624509
  0.7500000298232123  0.3333333486386110  0.7842843222624509
  0.8750010289007193  0.5000004821162634  0.7842843222624509
  0.7500000298232123  0.0000000000000000  0.7842843222624509
  0.8750010289007193  0.1666666743193090  0.7842843222624509
  0.1249998061491411  0.6111122105402629  0.3333333667460892
  0.2500002087624651  0.7777775073845277  0.3333333667460892
  0.1249998061491411  0.2777779435849581  0.3333333667460892
  0.2500002087624651  0.4444446179042671  0.3333333667460892
  0.3750000149116062  0.6111122105402629  0.3333333667460892
  0.4999998210607473  0.7777775073845277  0.3333333667460892
  0.1249998061491411  0.9444428042287925  0.3333333667460892
  0.2500002087624651  0.1111112692656562  0.3333333667460892
  0.3750000149116062  0.2777779435849581  0.3333333667460892
  0.4999998210607473  0.4444446179042671  0.3333333667460892
  0.6249990307456983  0.6111122105402629  0.3333333667460892
  0.7500000298232123  0.7777775073845277  0.3333333667460892
  0.3750000149116062  0.9444428042287925  0.3333333667460892
  0.4999998210607473  0.1111112692656562  0.3333333667460892
  0.6249990307456983  0.2777779435849581  0.3333333667460892
  0.7500000298232123  0.4444446179042671  0.3333333667460892
  0.8750010289007193  0.6111122105402629  0.3333333667460892
  0.0000000000000000  0.7777775073845277  0.3333333667460892
  0.6249990307456983  0.9444428042287925  0.3333333667460892
  0.7500000298232123  0.1111112692656562  0.3333333667460892
  0.8750010289007193  0.2777779435849581  0.3333333667460892
  0.0000000000000000  0.4444446179042671  0.3333333667460892
  0.8750010289007193  0.9444428042287925  0.3333333667460892
  0.0000000000000000  0.1111112692656562  0.3333333667460892
  0.0000000000000000  0.6666657789605281  0.2157151097206480
  0.1249998061491411  0.8333310758047929  0.2157151097206480
  0.0000000000000000  0.3333333486386110  0.2157151097206480
  0.1249998061491411  0.5000004821162634  0.2157151097206480
  0.2500002087624651  0.6666657789605281  0.2157151097206480
  0.3750000149116062  0.8333310758047929  0.2157151097206480
  0.0000000000000000  0.0000000000000000  0.2157151097206480
  0.1249998061491411  0.1666666743193090  0.2157151097206480
  0.2500002087624651  0.3333333486386110  0.2157151097206480
  0.3750000149116062  0.5000004821162634  0.2157151097206480
  0.4999998210607473  0.6666657789605281  0.2157151097206480
  0.6249990307456983  0.8333310758047929  0.2157151097206480
  0.2500002087624651  0.0000000000000000  0.2157151097206480
  0.3750000149116062  0.1666666743193090  0.2157151097206480
  0.4999998210607473  0.3333333486386110  0.2157151097206480
  0.6249990307456983  0.5000004821162634  0.2157151097206480
  0.7500000298232123  0.6666657789605281  0.2157151097206480
  0.8750010289007193  0.8333310758047929  0.2157151097206480
  0.4999998210607473  0.0000000000000000  0.2157151097206480
  0.6249990307456983  0.1666666743193090  0.2157151097206480
  0.7500000298232123  0.3333333486386110  0.2157151097206480
  0.8750010289007193  0.5000004821162634  0.2157151097206480
  0.7500000298232123  0.0000000000000000  0.2157151097206480
  0.8750010289007193  0.1666666743193090  0.2157151097206480
  0.1249998061491411  0.6111122105402629  0.1176182570254412
  0.2500002087624651  0.7777775073845277  0.1176182570254412
  0.1249998061491411  0.2777779435849581  0.1176182570254412
  0.2500002087624651  0.4444446179042671  0.1176182570254412
  0.3750000149116062  0.6111122105402629  0.1176182570254412
  0.4999998210607473  0.7777775073845277  0.1176182570254412
  0.1249998061491411  0.9444428042287925  0.1176182570254412
  0.2500002087624651  0.1111112692656562  0.1176182570254412
  0.3750000149116062  0.2777779435849581  0.1176182570254412
  0.4999998210607473  0.4444446179042671  0.1176182570254412
  0.6249990307456983  0.6111122105402629  0.1176182570254412
  0.7500000298232123  0.7777775073845277  0.1176182570254412
  0.3750000149116062  0.9444428042287925  0.1176182570254412
  0.4999998210607473  0.1111112692656562  0.1176182570254412
  0.6249990307456983  0.2777779435849581  0.1176182570254412
  0.7500000298232123  0.4444446179042671  0.1176182570254412
  0.8750010289007193  0.6111122105402629  0.1176182570254412
  0.0000000000000000  0.7777775073845277  0.1176182570254412
  0.6249990307456983  0.9444428042287925  0.1176182570254412
  0.7500000298232123  0.1111112692656562  0.1176182570254412
  0.8750010289007193  0.2777779435849581  0.1176182570254412
  0.0000000000000000  0.4444446179042671  0.1176182570254412
  0.8750010289007193  0.9444428042287925  0.1176182570254412
  0.0000000000000000  0.1111112692656562  0.1176182570254412
  0.1249998061491411  0.7222239389642624  0.6666680700025367
  0.2500002087624651  0.8888892358085272  0.6666680700025367
  0.1249998061491411  0.3888887536922638  0.6666680700025367
  0.2500002087624651  0.5555540505365286  0.6666680700025367
  0.3750000149116062  0.7222239389642624  0.6666680700025367
  0.4999998210607473  0.8888892358085272  0.6666680700025367
  0.1249998061491411  0.0555554050536529  0.6666680700025367
  0.2500002087624651  0.2222220793729619  0.6666680700025367
  0.3750000149116062  0.3888887536922638  0.6666680700025367
  0.4999998210607473  0.5555540505365286  0.6666680700025367
  0.6249990307456983  0.7222239389642624  0.6666680700025367
  0.7500000298232123  0.8888892358085272  0.6666680700025367
  0.3750000149116062  0.0555554050536529  0.6666680700025367
  0.4999998210607473  0.2222220793729619  0.6666680700025367
  0.6249990307456983  0.3888887536922638  0.6666680700025367
  0.7500000298232123  0.5555540505365286  0.6666680700025367
  0.8750010289007193  0.7222239389642624  0.6666680700025367
  0.0000000000000000  0.8888892358085272  0.6666680700025367
  0.6249990307456983  0.0555554050536529  0.6666680700025367
  0.7500000298232123  0.2222220793729619  0.6666680700025367
  0.8750010289007193  0.3888887536922638  0.6666680700025367
  0.0000000000000000  0.5555540505365286  0.6666680700025367
  0.8750010289007193  0.0555554050536529  0.6666680700025367
  0.0000000000000000  0.2222220793729619  0.6666680700025367
  0.1249998061491411  0.6111122105402629  0.5490484764667443
  0.2500002087624651  0.7777775073845277  0.5490484764667443
  0.1249998061491411  0.2777779435849581  0.5490484764667443
  0.2500002087624651  0.4444446179042671  0.5490484764667443
  0.3750000149116062  0.6111122105402629  0.5490484764667443
  0.4999998210607473  0.7777775073845277  0.5490484764667443
  0.1249998061491411  0.9444428042287925  0.5490484764667443
  0.2500002087624651  0.1111112692656562  0.5490484764667443
  0.3750000149116062  0.2777779435849581  0.5490484764667443
  0.4999998210607473  0.4444446179042671  0.5490484764667443
  0.6249990307456983  0.6111122105402629  0.5490484764667443
  0.7500000298232123  0.7777775073845277  0.5490484764667443
  0.3750000149116062  0.9444428042287925  0.5490484764667443
  0.4999998210607473  0.1111112692656562  0.5490484764667443
  0.6249990307456983  0.2777779435849581  0.5490484764667443
  0.7500000298232123  0.4444446179042671  0.5490484764667443
  0.8750010289007193  0.6111122105402629  0.5490484764667443
  0.0000000000000000  0.7777775073845277  0.5490484764667443
  0.6249990307456983  0.9444428042287925  0.5490484764667443
  0.7500000298232123  0.1111112692656562  0.5490484764667443
  0.8750010289007193  0.2777779435849581  0.5490484764667443
  0.0000000000000000  0.4444446179042671  0.5490484764667443
  0.8750010289007193  0.9444428042287925  0.5490484764667443
  0.0000000000000000  0.1111112692656562  0.5490484764667443
  0.1249998061491411  0.7222239389642624  0.4509519578991217
  0.2500002087624651  0.8888892358085272  0.4509519578991217
  0.1249998061491411  0.3888887536922638  0.4509519578991217
  0.2500002087624651  0.5555540505365286  0.4509519578991217
  0.3750000149116062  0.7222239389642624  0.4509519578991217
  0.4999998210607473  0.8888892358085272  0.4509519578991217
  0.1249998061491411  0.0555554050536529  0.4509519578991217
  0.2500002087624651  0.2222220793729619  0.4509519578991217
  0.3750000149116062  0.3888887536922638  0.4509519578991217
  0.4999998210607473  0.5555540505365286  0.4509519578991217
  0.6249990307456983  0.7222239389642624  0.4509519578991217
  0.7500000298232123  0.8888892358085272  0.4509519578991217
  0.3750000149116062  0.0555554050536529  0.4509519578991217
  0.4999998210607473  0.2222220793729619  0.4509519578991217
  0.6249990307456983  0.3888887536922638  0.4509519578991217
  0.7500000298232123  0.5555540505365286  0.4509519578991217
  0.8750010289007193  0.7222239389642624  0.4509519578991217
  0.0000000000000000  0.8888892358085272  0.4509519578991217
  0.6249990307456983  0.0555554050536529  0.4509519578991217
  0.7500000298232123  0.2222220793729619  0.4509519578991217
  0.8750010289007193  0.3888887536922638  0.4509519578991217
  0.0000000000000000  0.5555540505365286  0.4509519578991217
  0.8750010289007193  0.0555554050536529  0.4509519578991217
  0.0000000000000000  0.2222220793729619  0.4509519578991217
 
  0.00000000E+00  0.00000000E+00  0.00000000E+00
  0.00000000E+00  0.00000000E+00  0.00000000E+00
  0.00000000E+00  0.00000000E+00  0.00000000E+00
  0.00000000E+00  0.00000000E+00  0.00000000E+00
  0.00000000E+00  0.00000000E+00  0.00000000E+00
  0.00000000E+00  0.00000000E+00  0.00000000E+00
  0.00000000E+00  0.00000000E+00  0.00000000E+00
  0.00000000E+00  0.00000000E+00  0.00000000E+00
  0.00000000E+00  0.00000000E+00  0.00000000E+00
  0.00000000E+00  0.00000000E+00  0.00000000E+00
  0.00000000E+00  0.00000000E+00  0.00000000E+00
  0.00000000E+00  0.00000000E+00  0.00000000E+00
  0.00000000E+00  0.00000000E+00  0.00000000E+00
  0.00000000E+00  0.00000000E+00  0.00000000E+00
  0.00000000E+00  0.00000000E+00  0.00000000E+00
  0.00000000E+00  0.00000000E+00  0.00000000E+00
  0.00000000E+00  0.00000000E+00  0.00000000E+00
  0.00000000E+00  0.00000000E+00  0.00000000E+00
  0.00000000E+00  0.00000000E+00  0.00000000E+00
  0.00000000E+00  0.00000000E+00  0.00000000E+00
  0.00000000E+00  0.00000000E+00  0.00000000E+00
  0.00000000E+00  0.00000000E+00  0.00000000E+00
  0.00000000E+00  0.00000000E+00  0.00000000E+00
  0.00000000E+00  0.00000000E+00  0.00000000E+00
  0.00000000E+00  0.00000000E+00  0.00000000E+00
  0.00000000E+00  0.00000000E+00  0.00000000E+00
  0.00000000E+00  0.00000000E+00  0.00000000E+00
  0.00000000E+00  0.00000000E+00  0.00000000E+00
  0.00000000E+00  0.00000000E+00  0.00000000E+00
  0.00000000E+00  0.00000000E+00  0.00000000E+00
  0.00000000E+00  0.00000000E+00  0.00000000E+00
  0.00000000E+00  0.00000000E+00  0.00000000E+00
  0.00000000E+00  0.00000000E+00  0.00000000E+00
  0.00000000E+00  0.00000000E+00  0.00000000E+00
  0.00000000E+00  0.00000000E+00  0.00000000E+00
  0.00000000E+00  0.00000000E+00  0.00000000E+00
  0.00000000E+00  0.00000000E+00  0.00000000E+00
  0.00000000E+00  0.00000000E+00  0.00000000E+00
  0.00000000E+00  0.00000000E+00  0.00000000E+00
  0.00000000E+00  0.00000000E+00  0.00000000E+00
  0.00000000E+00  0.00000000E+00  0.00000000E+00
  0.00000000E+00  0.00000000E+00  0.00000000E+00
  0.00000000E+00  0.00000000E+00  0.00000000E+00
  0.00000000E+00  0.00000000E+00  0.00000000E+00
  0.00000000E+00  0.00000000E+00  0.00000000E+00
  0.00000000E+00  0.00000000E+00  0.00000000E+00
  0.00000000E+00  0.00000000E+00  0.00000000E+00
  0.00000000E+00  0.00000000E+00  0.00000000E+00
  0.00000000E+00  0.00000000E+00  0.00000000E+00
  0.00000000E+00  0.00000000E+00  0.00000000E+00
  0.00000000E+00  0.00000000E+00  0.00000000E+00
  0.00000000E+00  0.00000000E+00  0.00000000E+00
  0.00000000E+00  0.00000000E+00  0.00000000E+00
  0.00000000E+00  0.00000000E+00  0.00000000E+00
  0.00000000E+00  0.00000000E+00  0.00000000E+00
  0.00000000E+00  0.00000000E+00  0.00000000E+00
  0.00000000E+00  0.00000000E+00  0.00000000E+00
  0.00000000E+00  0.00000000E+00  0.00000000E+00
  0.00000000E+00  0.00000000E+00  0.00000000E+00
  0.00000000E+00  0.00000000E+00  0.00000000E+00
  0.00000000E+00  0.00000000E+00  0.00000000E+00
  0.00000000E+00  0.00000000E+00  0.00000000E+00
  0.00000000E+00  0.00000000E+00  0.00000000E+00
  0.00000000E+00  0.00000000E+00  0.00000000E+00
  0.00000000E+00  0.00000000E+00  0.00000000E+00
  0.00000000E+00  0.00000000E+00  0.00000000E+00
  0.00000000E+00  0.00000000E+00  0.00000000E+00
  0.00000000E+00  0.00000000E+00  0.00000000E+00
  0.00000000E+00  0.00000000E+00  0.00000000E+00
  0.00000000E+00  0.00000000E+00  0.00000000E+00
  0.00000000E+00  0.00000000E+00  0.00000000E+00
  0.00000000E+00  0.00000000E+00  0.00000000E+00
  0.00000000E+00  0.00000000E+00  0.00000000E+00
  0.00000000E+00  0.00000000E+00  0.00000000E+00
  0.00000000E+00  0.00000000E+00  0.00000000E+00
  0.00000000E+00  0.00000000E+00  0.00000000E+00
  0.00000000E+00  0.00000000E+00  0.00000000E+00
  0.00000000E+00  0.00000000E+00  0.00000000E+00
  0.00000000E+00  0.00000000E+00  0.00000000E+00
  0.00000000E+00  0.00000000E+00  0.00000000E+00
  0.00000000E+00  0.00000000E+00  0.00000000E+00
  0.00000000E+00  0.00000000E+00  0.00000000E+00
  0.00000000E+00  0.00000000E+00  0.00000000E+00
  0.00000000E+00  0.00000000E+00  0.00000000E+00
  0.00000000E+00  0.00000000E+00  0.00000000E+00
  0.00000000E+00  0.00000000E+00  0.00000000E+00
  0.00000000E+00  0.00000000E+00  0.00000000E+00
  0.00000000E+00  0.00000000E+00  0.00000000E+00
  0.00000000E+00  0.00000000E+00  0.00000000E+00
  0.00000000E+00  0.00000000E+00  0.00000000E+00
  0.00000000E+00  0.00000000E+00  0.00000000E+00
  0.00000000E+00  0.00000000E+00  0.00000000E+00
  0.00000000E+00  0.00000000E+00  0.00000000E+00
  0.00000000E+00  0.00000000E+00  0.00000000E+00
  0.00000000E+00  0.00000000E+00  0.00000000E+00
  0.00000000E+00  0.00000000E+00  0.00000000E+00
  0.00000000E+00  0.00000000E+00  0.00000000E+00
  0.00000000E+00  0.00000000E+00  0.00000000E+00
  0.00000000E+00  0.00000000E+00  0.00000000E+00
  0.00000000E+00  0.00000000E+00  0.00000000E+00
  0.00000000E+00  0.00000000E+00  0.00000000E+00
  0.00000000E+00  0.00000000E+00  0.00000000E+00
  0.00000000E+00  0.00000000E+00  0.00000000E+00
  0.00000000E+00  0.00000000E+00  0.00000000E+00
  0.00000000E+00  0.00000000E+00  0.00000000E+00
  0.00000000E+00  0.00000000E+00  0.00000000E+00
  0.00000000E+00  0.00000000E+00  0.00000000E+00
  0.00000000E+00  0.00000000E+00  0.00000000E+00
  0.00000000E+00  0.00000000E+00  0.00000000E+00
  0.00000000E+00  0.00000000E+00  0.00000000E+00
  0.00000000E+00  0.00000000E+00  0.00000000E+00
  0.00000000E+00  0.00000000E+00  0.00000000E+00
  0.00000000E+00  0.00000000E+00  0.00000000E+00
  0.00000000E+00  0.00000000E+00  0.00000000E+00
  0.00000000E+00  0.00000000E+00  0.00000000E+00
  0.00000000E+00  0.00000000E+00  0.00000000E+00
  0.00000000E+00  0.00000000E+00  0.00000000E+00
  0.00000000E+00  0.00000000E+00  0.00000000E+00
  0.00000000E+00  0.00000000E+00  0.00000000E+00
  0.00000000E+00  0.00000000E+00  0.00000000E+00
  0.00000000E+00  0.00000000E+00  0.00000000E+00
  0.00000000E+00  0.00000000E+00  0.00000000E+00
  0.00000000E+00  0.00000000E+00  0.00000000E+00
  0.00000000E+00  0.00000000E+00  0.00000000E+00
  0.00000000E+00  0.00000000E+00  0.00000000E+00
  0.00000000E+00  0.00000000E+00  0.00000000E+00
  0.00000000E+00  0.00000000E+00  0.00000000E+00
  0.00000000E+00  0.00000000E+00  0.00000000E+00
  0.00000000E+00  0.00000000E+00  0.00000000E+00
  0.00000000E+00  0.00000000E+00  0.00000000E+00
  0.00000000E+00  0.00000000E+00  0.00000000E+00
  0.00000000E+00  0.00000000E+00  0.00000000E+00
  0.00000000E+00  0.00000000E+00  0.00000000E+00
  0.00000000E+00  0.00000000E+00  0.00000000E+00
  0.00000000E+00  0.00000000E+00  0.00000000E+00
  0.00000000E+00  0.00000000E+00  0.00000000E+00
  0.00000000E+00  0.00000000E+00  0.00000000E+00
  0.00000000E+00  0.00000000E+00  0.00000000E+00
  0.00000000E+00  0.00000000E+00  0.00000000E+00
  0.00000000E+00  0.00000000E+00  0.00000000E+00
  0.00000000E+00  0.00000000E+00  0.00000000E+00
  0.00000000E+00  0.00000000E+00  0.00000000E+00
  0.00000000E+00  0.00000000E+00  0.00000000E+00
  0.00000000E+00  0.00000000E+00  0.00000000E+00
  0.00000000E+00  0.00000000E+00  0.00000000E+00
  0.00000000E+00  0.00000000E+00  0.00000000E+00
  0.00000000E+00  0.00000000E+00  0.00000000E+00
  0.00000000E+00  0.00000000E+00  0.00000000E+00
  0.00000000E+00  0.00000000E+00  0.00000000E+00
  0.00000000E+00  0.00000000E+00  0.00000000E+00
  0.00000000E+00  0.00000000E+00  0.00000000E+00
  0.00000000E+00  0.00000000E+00  0.00000000E+00
  0.00000000E+00  0.00000000E+00  0.00000000E+00
  0.00000000E+00  0.00000000E+00  0.00000000E+00
  0.00000000E+00  0.00000000E+00  0.00000000E+00
  0.00000000E+00  0.00000000E+00  0.00000000E+00
  0.00000000E+00  0.00000000E+00  0.00000000E+00