Bi144 Se216
1.0
  16.8710670000000000    0.0000000000000000    0.0000000000000000
   0.0000000000000000   22.0584039999999995    0.0000000000000000
   0.0000000000000000    0.0000000000000000   29.9286870000000000
Bi Se
144 216
direct
   0.1196059502342086    0.6144551527843991    0.7653025339868735 Bi
   0.2490340415339468    0.8078825648492066    0.7561140253162459 Bi
   0.1332891393294805    0.3075249687148717    0.7610156770325408 Bi
   0.2641498608238589    0.4667835442673006    0.7699068121498281 Bi
   0.3655014825084863    0.6180864218462949    0.7807191808982467 Bi
   0.5038128293841758    0.7774270522926319    0.7656333202990162 Bi
   0.1139945683340597    0.9662711771894286    0.7537918385794873 Bi
   0.2806331099271907    0.1274874646415942    0.7491875604165329 Bi
   0.3488196686078006    0.2864132871988381    0.7608987323767328 Bi
   0.5078552530198593    0.4492763846378006    0.7766461656002485 Bi
   0.5721760218248199    0.6073059501494306    0.7897473083266232 Bi
   0.7522227254506190    0.7925913406971783    0.7352143446854185 Bi
   0.4177210605588846    0.9647434148000916    0.7575942105311870 Bi
   0.5111964761920511    0.1245090079953201    0.7481016457554588 Bi
   0.5950127517127399    0.3037096428191269    0.7687407068676284 Bi
   0.7481625198927844    0.4810502156003671    0.7441054798027057 Bi
   0.8554704927672920    0.6303175878000965    0.7552352697597460 Bi
   0.9781064825360481    0.7906873044849482    0.7267408690531596 Bi
   0.6270498481216392    0.9638684648263763    0.7438983206981316 Bi
   0.7341444379303336    0.1306141641072491    0.7419336504805575 Bi
   0.8695004293445102    0.2879378761944880    0.7574004165301338 Bi
   0.9736135835392034    0.4638232212992381    0.7672972756873699 Bi
   0.8694767201149756    0.9732163759445153    0.7375164837668957 Bi
   0.0154338786041215    0.1165877640104878    0.7518739462242364 Bi
   0.0825922865459547    0.6402004424254810    0.9720840743865576 Bi
   0.2309510121677544    0.7836877046952263    0.9795752149100294 Bi
   0.1179789043573830    0.2907762501765767    0.9586554866239204 Bi
   0.2144487956807948    0.4511713540109248    0.9638077340312324 Bi
   0.3215813202567449    0.6202896637490183    0.9566206496128615 Bi
   0.4701095668697184    0.8093831267212260    0.9465500441098537 Bi
   0.0997974816886211    0.9591718421695423    0.9589528601772608 Bi
   0.2166087064914151    0.1161244485321785    0.9533862945608006 Bi
   0.3659566997155544    0.2909911342633855    0.9589595427290212 Bi
   0.4437437181655434    0.4855065670208960    0.9740487446041319 Bi
   0.5904665069494419    0.6530572202775867    0.9658124995593693 Bi
   0.7282764036204704    0.7922377339720499    0.9408966053205075 Bi
   0.3558862044706478    0.9816757368302802    0.9797656676352025 Bi
   0.4760499143296628    0.1321519000196025    0.9727322819073220 Bi
   0.6069088576318261    0.2928783968232697    0.9847408274208622 Bi
   0.7136240997679637    0.4575852359944083    0.9725618768374305 Bi
   0.8649186207369101    0.6499518278838305    0.9733938545316072 Bi
   0.9688065372510226    0.8028595359845617    0.9506264006837321 Bi
   0.6046268442891015    0.9592081095259657    0.9506965674772169 Bi
   0.7380446061888082    0.1553494078719385    0.9634602413396887 Bi
   0.8658314260739999    0.3048715582505425    0.9630559469581811 Bi
   0.9864165674879958    0.4578889751044545    0.9746802457454951 Bi
   0.8441019172053551    0.9832397665760406    0.9715628353492421 Bi
   0.9868374063122386    0.1195077395445292    0.9443514845806635 Bi
   0.0925063008759316    0.7558933094162207    0.0774450947346938 Bi
   0.2325033739715455    0.9267397586878905    0.0802170172049312 Bi
   0.0862334314717617    0.4230759396736047    0.0892154072779738 Bi
   0.1940398908972384    0.5596007761939622    0.0856796691415163 Bi
   0.3163635115668736    0.7548098221430707    0.0945995392313736 Bi
   0.4919072397732757    0.9183030648998902    0.0925556807754380 Bi
   0.1368431528367471    0.0867410896998713    0.0917370681847820 Bi
   0.2279103034799162    0.2664077600537192    0.0828546203847833 Bi
   0.3396163384331293    0.4157626272508201    0.0772700118785699 Bi
   0.4431954422325511    0.5836596337613545    0.0719720848428800 Bi
   0.5888495374951684    0.7185379323000884    0.0728017236439407 Bi
   0.7184133641339934    0.9076495289505079    0.0861367556819315 Bi
   0.3645578551730012    0.0952022639534574    0.0731943235598675 Bi
   0.4480789507859817    0.2617600983280567    0.0859843935017931 Bi
   0.6161791663799331    0.4049413547779794    0.0759431912265313 Bi
   0.6964408356626169    0.5779837924810879    0.0604570457768495 Bi
   0.8305402379114492    0.7715200066151657    0.0862142732823528 Bi
   0.9740818408225159    0.9325652028134039    0.0946078924210741 Bi
   0.6124034715765161    0.0873775818051025    0.0885097298120696 Bi
   0.7326092653179552    0.2351117515120314    0.0823510901096329 Bi
   0.8693285374303830    0.4153559795169224    0.0949901343817723 Bi
   0.9452810542451168    0.5947665116660299    0.0734091675989662 Bi
   0.8639702515555181    0.0632389360535785    0.1039741569685299 Bi
   0.0026980510479865    0.2298561582243212    0.0798885697859048 Bi
   0.1116823257236783    0.7598917854619037    0.3000910130137016 Bi
   0.2400802510001294    0.9096034327778202    0.2829666399999439 Bi
   0.1224860288919486    0.4106407698399213    0.2992653837436972 Bi
   0.2366335217565077    0.5989327242351713    0.2961573289199089 Bi
   0.3370450724900802    0.7335027502443060    0.3171793002479528 Bi
   0.4945591170967432    0.8930745850878422    0.3137561631086589 Bi
   0.1185657077883693    0.0871799247125948    0.2983458646214583 Bi
   0.2592841341925795    0.2346638496602021    0.3007255213033569 Bi
   0.3646414302071114    0.3838795408770281    0.2809020656335509 Bi
   0.4815794993879166    0.5770544414727375    0.2958165187801256 Bi
   0.5984090988436002    0.7457293827785546    0.3104710206632186 Bi
   0.7396034880307214    0.9024270296255340    0.2736217596181216 Bi
   0.3747711985258549    0.0563041641634635    0.2891653750129433 Bi
   0.4989642919443091    0.2325712231945702    0.2980093981403193 Bi
   0.6053914669415988    0.4081922699393846    0.2840739388266516 Bi
   0.7510906097403323    0.5706215191271318    0.3018642281233387 Bi
   0.8281396784210506    0.7477104871231844    0.2932026386590230 Bi
   0.9506571220421327    0.8984874880340390    0.2858124046671343 Bi
   0.6110816820299509    0.0829375506949641    0.2752569800339053 Bi
   0.7267353037007084    0.2514347819543064    0.2947179072707066 Bi
   0.8540538663025876    0.4202271388265443    0.2848574680205651 Bi
   0.9901033526806573    0.6017978453926222    0.3055663617986316 Bi
   0.8793397596014525    0.0983393902840840    0.3020810769279655 Bi
   0.0155101630501497    0.2697139829336701    0.2767050890003962 Bi
   0.0222029229093809    0.7077846611205416    0.4065263537956076 Bi
   0.0775854899989432    0.8597176840173930    0.4363338759231236 Bi
   0.9932270436718672    0.3456814010660064    0.4139339624220736 Bi
   0.1016936273206668    0.5210440428963038    0.3821651113528636 Bi
   0.2210784889894634    0.6780000946578003    0.4250570698273533 Bi
   0.3583134368442731    0.8677237029478650    0.4351209927786007 Bi
   0.0013585388523441    0.0273628137375669    0.4183511291357352 Bi
   0.1406834552906464    0.2027580961886454    0.4082805236327274 Bi
   0.2538434587450811    0.3343147582209484    0.4106461469559290 Bi
   0.3514199783570298    0.5051634742023947    0.4232995587143532 Bi
   0.4926031056601221    0.6564164841663068    0.4160690377095394 Bi
   0.6072585687674644    0.8303275250557565    0.4119124905145354 Bi
   0.2556080181532087    0.0271638419533888    0.3953096906656814 Bi
   0.4133467077097139    0.0994840787211985    0.5068347969959391 Bi
   0.4624111800397687    0.3058693638941421    0.4388732455920970 Bi
   0.6118403773750646    0.4962371711026781    0.3845942189177896 Bi
   0.7250282391742027    0.6583431874763015    0.4224909699513381 Bi
   0.8053610361454909    0.8707565606287744    0.4150466072901895 Bi
   0.5054837373356409    0.0001688698783466    0.4171315634394520 Bi
   0.6289821503287254    0.1861585271536417    0.4116385058923568 Bi
   0.7596259323728606    0.3481357944119620    0.4026571563263033 Bi
   0.8602834663628566    0.5280935103011078    0.4240713934426860 Bi
   0.7177672876291701    0.0302099825535882    0.4112375527867294 Bi
   0.8868970765156702    0.1945643936886821    0.4098576058481951 Bi
   0.0273549977603669    0.6793374534259142    0.6408968091383361 Bi
   0.1379314064723944    0.8628684106066785    0.6255636941239688 Bi
   0.0089937998586574    0.3535273902862601    0.6579573637827815 Bi
   0.1356944406657860    0.5131785599719726    0.6483278066959637 Bi
   0.2505460976475288    0.6735210761395067    0.6482175445919162 Bi
   0.3599778247576161    0.8274442702200938    0.6311703550509917 Bi
   0.0071341664400953    0.0316546926967155    0.6300009084929119 Bi
   0.1381922079972772    0.1800211837628869    0.6480905761084674 Bi
   0.2785277303445005    0.3454764905022140    0.6346051866558663 Bi
   0.3912615603980471    0.4995239002785515    0.6206085819935904 Bi
   0.4869395634549966    0.6613216441225757    0.6443015692602887 Bi
   0.6063576180451420    0.8662684752713750    0.6361321497331306 Bi
   0.2777393984624683    0.0031438357915650    0.6526681240643801 Bi
   0.3786772940917134    0.1729345423177488    0.6289851606253225 Bi
   0.5200773608450491    0.3605043229782173    0.6344681943447771 Bi
   0.6517904291412037    0.5128884211205851    0.6289183351077180 Bi
   0.7411742244874020    0.7058534243909940    0.6232582137666114 Bi
   0.8560691508130458    0.8569386978314478    0.6259846948848775 Bi
   0.4807384144701695   -0.0034753647634706    0.6360419352843646 Bi
   0.6191487473791669    0.1990556524397686    0.6326238100588910 Bi
   0.7519026508518992    0.3369119542828212    0.6578270540234525 Bi
   0.8733413245291479    0.5189088022868744    0.6497612140485817 Bi
   0.7430828174649534    0.0375013532257365    0.6222357833472615 Bi
   0.8560217323539762    0.2070453510598500    0.6443583709502526 Bi
   0.9841760452969571    0.7165794950532233    0.0195810126919367 Se
   0.1168746469917996    0.8764369353285940    0.0201089676937715 Se
   0.9824097076966145    0.3322393587496176    0.0351422031978884 Se
   0.1115465903845916    0.5132828286216899    0.0203760358748782 Se
   0.2010821247998126    0.6851130299363454    0.0393662441656729 Se
   0.3507584908530089    0.8452152748675743    0.0186083004576846 Se
   0.0021723581561261    0.0245124715278585    0.0221369550892761 Se
   0.1243709126399652    0.1995044609755085    0.0255741590000256 Se
   0.2152383130243037    0.3653750289458839    0.0178851481189268 Se
   0.3233719598173607    0.5220096612610776    0.0254190569736654 Se
   0.4546641892892725    0.6971583256884768    0.0139137076076876 Se
   0.6123560531174465    0.8465163662792647    0.0200939653650693 Se
   0.2190691317863891    0.0120979287531410    0.0069808274582844 Se
   0.3383170726546222    0.2130485052318382    0.0210830498511345 Se
   0.4899773084891429    0.3620497657038106    0.0182935188570083 Se
   0.5586913975269021    0.5541108051153655    0.0126217030503209 Se
   0.7171982661203349    0.7017869470520169    0.0199825004017049 Se
   0.8462120386339524    0.8759518594364306    0.0330010802010793 Se
   0.5041429804054480    0.0256743869592741    0.0263782370406026 Se
   0.6149818502884258    0.1808811734520775    0.0215488237088383 Se
   0.7480143372081919    0.3610379064595970    0.0260616511509509 Se
   0.8510783579959702    0.5258268005246436    0.0171195949892489 Se
   0.7221772043226430    0.0425329955875321    0.0148567158993644 Se
   0.8530817878916609    0.1851271742053505    0.0179650046124643 Se
   0.0988983091585138    0.7330992759040953    0.9202475203806970 Se
   0.2519656877659249    0.8914833548247643    0.9014628673820541 Se
   0.1037195809844155    0.4069170190191457    0.9160709255304117 Se
   0.1996921712183349    0.5367614084863075    0.9089974444919686 Se
   0.3197183675460479    0.7382673741944340    0.9137353736901322 Se
   0.4638805595401879    0.9094402296739148    0.8969254147367041 Se
   0.1135435002421601    0.0702562161795568    0.8823073327607056 Se
   0.2696699621902989    0.2213600766401776    0.9073969733453393 Se
   0.3686038351931150    0.4111049920021412    0.9183028978184041 Se
   0.4496710255492435    0.5879301149802134    0.9115368141609420 Se
   0.5907166393210340    0.7880035201096145    0.8985559573662555 Se
   0.7453826127298291    0.9101791770610422    0.9161644812550581 Se
   0.3517133800725230    0.0601951981657422    0.9190079070291324 Se
   0.4847743180677310    0.2251287083145272    0.9156098294589402 Se
   0.5928255752881545    0.3685284755869010    0.9173539754684195 Se
   0.7437585305066953    0.5903600278605832    0.9123153314410353 Se
   0.8596492444728007    0.7500361313538367    0.8986962909532250 Se
   0.9661155396988227    0.9101882439001480    0.9033774184614247 Se
   0.5787837840961688    0.0927755244667746    0.9032771801850179 Se
   0.7751969688698409    0.2402408623942149    0.9001464046852441 Se
   0.8404092047053099    0.4121576520223313    0.9121850216817063 Se
   0.9868966793860754    0.5902648260499718    0.9139191438635448 Se
   0.8411975365873421    0.0675298176604255    0.9100165336354382 Se
   0.9831387665048097    0.2629433208313711    0.8964743424928733 Se
  -0.0023453169855825    0.6992436986828240    0.7911539854721994 Se
   0.0990891684562689    0.8651396538026958    0.8120436422753862 Se
   0.9535970665044481    0.3727191686216283    0.8197954023175157 Se
   0.1155736030210774    0.4897271806246726    0.8150942271540346 Se
   0.2273881076994122    0.6838436724615253    0.8211820318078104 Se
   0.3749347922096450    0.8457547517943728    0.8080341112191123 Se
   0.9794460540047645    0.9899084267383986    0.8073959275259888 Se
   0.1364217212817660    0.1913533726193427    0.8057186070341142 Se
   0.2928380285609677    0.3597277482088006    0.8246034983091641 Se
   0.3776963247197109    0.5114966613178360    0.8239486082366394 Se
   0.4795790331459178    0.6997197077358814    0.8343032221894666 Se
   0.6398469047630478    0.8652529892915189    0.7894866888079655 Se
   0.2674353673066440    0.0136884336690905    0.8145763293925993 Se
   0.3809670129340367    0.1754873108680030    0.7940943082468003 Se
   0.4690948118456290    0.3261990305372954    0.8226622170227516 Se
   0.6030205439881188    0.5110070520061197    0.8304941676860065 Se
   0.7345060036807393    0.6955625620058459    0.8209648488755955 Se
   0.8933163504122175    0.8515711290807804    0.7868437395867049 Se
   0.5057652844363667    0.0368062440056860    0.8100956784372132 Se
   0.6726130599801423    0.1708210621221735    0.8221109065025139 Se
   0.7813850777784238    0.3653695888424203    0.8127820642449167 Se
   0.8406700062301927    0.5324093257154959    0.8187128289323218 Se
   0.7630637706554066    0.0071364183918293    0.7980203074060684 Se
   0.8783854631126768    0.1741485920740231    0.7953339215983649 Se
   0.1106651997766353    0.6522140042407419    0.3523241764665453 Se
   0.2250047374004264    0.8102490098558355    0.3661737649900913 Se
   0.1205009736491474    0.3099090940577569    0.3569317959053800 Se
   0.2270235782953147    0.4742863536273975    0.3473824294396878 Se
   0.3468417261338598    0.6238619983567261    0.3606406121324334 Se
   0.4614456216669639    0.7832615632572510    0.3714195681220496 Se
   0.1297617987054405    0.9609534760538432    0.3433227792452105 Se
   0.2452595321920066    0.1221439230145572    0.3446258768384995 Se
   0.3841197477314268    0.3000529866077346    0.3447227738390261 Se
   0.4907620839867449    0.4579343092999838    0.3365333066565867 Se
   0.6289525137918069    0.6119527051911824    0.3568749942154161 Se
   0.7322832634118518    0.7537988695827676    0.3742128747579204 Se
   0.3661451880903561    0.9523127783859612    0.3531494716089617 Se
   0.5137499602129492    0.1203568490267927    0.3400683765378682 Se
   0.6205653738438712    0.2956714366098290    0.3600091109910702 Se
   0.7617479084162252    0.4787019042719500    0.3552310864823439 Se
   0.8526609490674182    0.6199904580585250    0.3660000186443195 Se
   0.9803944231861563    0.8178787549634143    0.3630797435250000 Se
   0.6378434748673573    0.9646164790526095    0.3451471158758151 Se
   0.7228292081348501    0.1320993123527885    0.3409003542320450 Se
   0.8655528426269660    0.3169939221350738    0.3425876985515602 Se
   0.9764053453169262    0.4684926434387546    0.3364230445525392 Se
   0.8771110920251813    0.9757641577332613    0.3576167574608268 Se
   0.0059859284537249    0.1528406134913478    0.3450502188752885 Se
   0.9813190831380137    0.7091537538255260    0.2352321703922394 Se
   0.0841968086547223    0.8420600148587359    0.2314394881405924 Se
   0.9727600512759507    0.3859830475495870    0.2369081543737619 Se
   0.0943111659742683    0.5309722317172176    0.2405073767519438 Se
   0.2547147729304851    0.7011296012168423    0.2391120599443604 Se
   0.3340713423756778    0.8648676486295200    0.2279217928938881 Se
   0.9525420057901494    0.0101968392636203    0.2382389845568568 Se
   0.1477790349596738    0.1927587326807506    0.2315013017443766 Se
   0.2475948913011844    0.3455957194364561    0.2413804521394474 Se
   0.3713938187786226    0.5277580372541912    0.2291954872594311 Se
   0.4529215609184647    0.7144669215415584    0.2585539419086444 Se
   0.5917764418812396    0.8270362624603302    0.2523114361816140 Se
   0.2401916843789429    0.0367852089389604    0.2176590640277671 Se
   0.3847219621616107    0.1742315536518417    0.2319045937431201 Se
   0.4799969083164686    0.3383087008470785    0.2188134748443859 Se
   0.5881092168029443    0.5174989088059136    0.2338986671884403 Se
   0.7342274202337054    0.6778051576170243    0.2294995433645318 Se
   0.8416539392558869    0.8319459558361522    0.2298002581937524 Se
   0.4793721701182266    0.9848037963218009    0.2416527661236860 Se
   0.6076023525957190    0.1823273342894617    0.2301517604163524 Se
   0.7239316873082182    0.3743153856462145    0.2168514776475159 Se
   0.8652505499503973    0.5549676214108691    0.2482187073559225 Se
   0.7323188272561539    0.0280423733285509    0.2377772202302093 Se
   0.8664182295049863    0.2035967788059372    0.2332093619743492 Se
   0.0630991507531800    0.6432196998477315    0.1314999217974381 Se
   0.1916820080200025    0.8133861361864620    0.1347112220459254 Se
   0.0985794200212707    0.2925207100205436    0.1372846727288771 Se
   0.2201858364974782    0.4531257111801923    0.1435702809147625 Se
   0.3649217918463604    0.6321264222017150    0.1436374405599551 Se
   0.4669194900358110    0.8085308438452755    0.1444487023436745 Se
   0.1040562520438097    0.9530698594513002    0.1522896744518061 Se
   0.2563892372663804    0.1529652825290533    0.1373394696533129 Se
   0.3329937578933211    0.3225836284438348    0.1427022174410792 Se
   0.4759728593336746    0.4382547350207204    0.1400398888197134 Se
   0.5730414087028403    0.6244060087030775    0.1278358786671798 Se
   0.7317912968990046    0.8043872983738987    0.1420894274446454 Se
   0.3370077304535629    0.9813447972029163    0.1270336383283370 Se
   0.4852662845805780    0.1145155379328441    0.1394965973615882 Se
   0.5886681618892272    0.2869378038411120    0.1383782723244758 Se
   0.7426323421037923    0.4933267157496979    0.1294754427416078 Se
   0.8344759700142261    0.6200901932886894    0.1385172694010934 Se
   0.9497917351641126    0.8129237273920633    0.1374811397506346 Se
   0.6212647961151480    0.9274469721381473    0.1566644069617889 Se
   0.7502904232435329    0.1371246079272100    0.1498465335281832 Se
   0.8658847718404532    0.3184491498115639    0.1487385664462995 Se
   0.9643906932501660    0.4936485885379558    0.1216732294336868 Se
   0.8395971635937430    0.9422304533002478    0.1435418800697806 Se
   0.0071135394104001    0.1391419796282632    0.1467351374285147 Se
   0.1395874961554002    0.7374286915771422    0.6999739079766514 Se
   0.2554509445075406    0.9054417536282316    0.7102616964118741 Se
   0.1395323721967318    0.4144628958649955    0.7059314028710983 Se
   0.2512224034200089    0.5712788649623064    0.7089452337150641 Se
   0.3675843383231185    0.7178896533040197    0.6936655791147804 Se
   0.4788784254131644    0.8733859439694730    0.7021256896435183 Se
   0.1325073274855704    0.0555244160003598    0.7033485966156818 Se
   0.2587903894875173    0.2499233398753600    0.6942937389802634 Se
   0.4128428865820993    0.4114345716036391    0.6974879987217616 Se
   0.5349359349945086    0.5396537301610760    0.6935887297695352 Se
   0.6083017748669957    0.7139773122298422    0.7089853290256269 Se
   0.7410971694914139    0.9227050152857841    0.6702365526426202 Se
   0.4025495245795657    0.0810584482902752    0.6924894500049401 Se
   0.4930944794422308    0.2357314699649168    0.6829701550221700 Se
   0.6372329622068361    0.4089035634672391    0.6932746498367938 Se
   0.7394790145756637    0.5819188006530300    0.6862546292124342 Se
   0.8716401873100261    0.7458925858824600    0.6690336933257379 Se
   0.0166738120357177    0.9155558126508154    0.6846174040311224 Se
   0.6212410868856131    0.0731172572594101    0.7009863145683606 Se
   0.7523412715982931    0.2480895716662003    0.7077123029152600 Se
   0.8728849218606031    0.4069877403641713    0.7028574290612882 Se
   0.0203746449468786    0.5654806213541106    0.7024999125421039 Se
   0.8511969041436442    0.0933508154080413    0.6904612955456416 Se
   0.9937427194142492    0.2317248337640384    0.7018483637454594 Se
   0.1538011792615132    0.6013037026613530    0.5965981735182703 Se
   0.2263016322559800    0.7446186949880871    0.5812283044692205 Se
   0.1118008718713523    0.2639851006446341    0.5517382035503261 Se
   0.2613877355830547    0.4438299343869121    0.5828889185816939 Se
   0.3902912601793354    0.6113633606493017    0.5910215840741695 Se
   0.4622031315506008    0.7735011109597957    0.5604088144595185 Se
   0.1444075825198252    0.9739598567511957    0.5936578507436694 Se
   0.2415170303099383    0.1261242653820285    0.5846430884188137 Se
   0.4056791428781594    0.2926716728916562    0.5697877758553191 Se
   0.4884670305677761    0.4691454558543764    0.5587248114158835 Se
   0.6067014018733966    0.6105020109342453    0.5597873371457960 Se
   0.6849952051046919    0.7868112307671942    0.5624403101946972 Se
   0.3736479737766438    0.9599425234935401    0.5677429150166194 Se
   0.5066745333890262    0.1031896958637624    0.5989203602550289 Se
   0.6365098307060246    0.3273160651151371    0.5765872722715835 Se
   0.7717769125094458    0.4706233506286311    0.5849170730409925 Se
   0.8992792216402198    0.6343568646217560    0.5797715081854410 Se
   0.0196973315321432    0.7934300233144700    0.5910282666259299 Se
   0.5943666752079165    0.9750206769265809    0.5795843967361483 Se
   0.6939691484836139    0.1185838286396423    0.5619357775367828 Se
   0.8853144854442223    0.3164521784984988    0.5987633202886583 Se
   0.9764824003129143    0.4829723854908089    0.5813285427456273 Se
   0.8248322409009460    0.9782212711309485    0.5640374400654463 Se
   0.9903285903612379    0.1186078557632728    0.5662961425604806 Se
   0.0640172906669151    0.7388295182189971    0.4830850080392769 Se
   0.2430569447682236    0.9170563745228348    0.4743442303365998 Se
   0.1101270002661954    0.4119763152402141    0.4739867138174154 Se
   0.2238975163811512    0.5391323869124892    0.4815847751690544 Se
   0.3312529077147284    0.7169240349392458    0.4961828094897715 Se
   0.5136112612201705    0.8995573750485303    0.4747652310975086 Se
   0.1130764284203246    0.0699483969919129    0.4710697799739761 Se
   0.2578034928081313    0.2318794233707933    0.4897374883168112 Se
   0.3346409566152514    0.4020431396577921    0.4809399089241704 Se
   0.5044310475442958    0.5597413122001029    0.4619581206485938 Se
   0.5924035510024350    0.7276410387623692    0.4651289914589304 Se
   0.7192254052455603    0.9064935069645110    0.4746015085793774 Se
   0.5456234629380583    0.2064841137191974    0.4962362699038552 Se
   0.3952364127295564    0.1060430301303757    0.4248833234815815 Se
   0.6190894743053299    0.4022956511268903    0.4702812388662423 Se
   0.6924102666417008    0.5621394911436023    0.4599834266033789 Se
   0.8685698420852694    0.7228582811340295    0.4656101351856833 Se
   0.9656947008745801    0.9056366906690076    0.4851799880161800 Se
   0.5653062725671114    0.0474467690409515    0.4862826090566553 Se
   0.7327455933877803    0.2521478888499821    0.4825136498637579 Se
   0.8658729172256858    0.4301566876733239    0.4944754175149749 Se
  -0.0020912725911171    0.5569668594337106    0.4722492503596968 Se
   0.8075541398774599    0.1038629086673723    0.4689547523417917 Se
   0.0010322405808714    0.2199955173547461    0.4651991582524152 Se
