Bi144 Se216
1.0
  16.7654660000000000    0.0000000000000000    0.0000000000000000
   0.0000000000000000   21.7789789999999996    0.0000000000000000
   0.0000000000000000    0.0000000000000000   29.9286870000000000
Bi Se
144 216
direct
   0.1251286424129219    0.6111810842923353    0.7299083985876159 Bi
   0.2496643994267741    0.7776397598803875    0.7298749858288137 Bi
   0.1249222658051974    0.2778486539704180    0.7299184224152567 Bi
   0.2500801349631439    0.4444955844807968    0.7298883509323346 Bi
   0.3748544776506659    0.6110387452047225    0.7298816683805742 Bi
   0.5003070001155947    0.7778463811365997    0.7299251049670172 Bi
   0.1251208883785276    0.9444014799775510    0.7298683032770533 Bi
   0.2500354001493308    0.1109487272107659    0.7299251049670172 Bi
   0.3750727835420739    0.2777416700755348    0.7298816683805742 Bi
   0.4998674060118579    0.4444547193879015    0.7298816683805742 Bi
   0.6251242882243774    0.6111810842923353    0.7299117398634963 Bi
   0.7496660098800714    0.7776443514638588    0.7298749858288137 Bi
   0.3749218781034777    0.9446081012337632    0.7299351287946578 Bi
   0.4999503145334582    0.1111030044154044    0.7299284462428974 Bi
   0.6249155257599163    0.2778495722871123    0.7299184224152567 Bi
   0.7500835348089937    0.4444965027974911    0.7298883509323346 Bi
   0.8748519128546739    0.6110387452047225    0.7298816683805742 Bi
   0.0003077755190342    0.7778463811365997    0.7299251049670172 Bi
   0.6251242882243774    0.9444014799775510    0.7298683032770533 Bi
   0.7500417823161014    0.1109487272107659    0.7299217636911369 Bi
   0.8750785692446603    0.2777389151254520    0.7298816683805742 Bi
  -0.0001297906064764    0.4444551785462487    0.7298816683805742 Bi
   0.8749234885567749    0.9446126928172346    0.7299351287946578 Bi
  -0.0000517730911864    0.1111025452570573    0.7299284462428974 Bi
   0.1250021920058768    0.6110433367881938    0.9367734708843058 Bi
   0.2500503117539352    0.7777545494671720    0.9367901772637069 Bi
   0.1251870959029710    0.2778518680788480    0.9368068836431082 Bi
   0.2498606361433675    0.4445144099730295    0.9367500819531441 Bi
   0.3750423638686810    0.6111581263749783    0.9367834947119466 Bi
   0.4999377887855906    0.7777178167994009    0.9368002010913477 Bi
   0.1249974202924034    0.9445530022321066    0.9368135661948687 Bi
   0.2497819028710565    0.1111750922759051    0.9368135661948687 Bi
   0.3748151110145104    0.2776714188484226    0.9367667883325455 Bi
   0.5001155351124746    0.4445754780331989    0.9367333755737430 Bi
   0.6250049953875425    0.6110433367881938    0.9367701296084257 Bi
   0.7500537115997848    0.7777545494671720    0.9367901772637069 Bi
   0.3749916644130261    0.9442958735577091    0.9367667883325455 Bi
   0.5001763744592604    0.1110446913053179    0.9367834947119466 Bi
   0.6251839346427949    0.2778518680788480    0.9368068836431082 Bi
   0.7498568784190073    0.4445148691313767    0.9367500819531441 Bi
   0.8750427813936099    0.6111581263749783    0.9367834947119466 Bi
  -0.0000620322751542    0.7777178167994009    0.9368002010913477 Bi
   0.6249990307457007    0.9445530022321066    0.9368135661948687 Bi
   0.7497793380750645    0.1111755514342523    0.9368135661948687 Bi
   0.8748101603617818    0.2776737146401583    0.9367634470566651 Bi
   0.0001111212775118    0.4445759371915461    0.9367333755737430 Bi
   0.8749890996170342    0.9442958735577091    0.9367667883325455 Bi
   0.0001770305698631    0.1110414771968879    0.9367834947119466 Bi
   0.1248888638108836    0.7221642483791366    0.0632042428055731 Bi
   0.2498791265330770    0.8889397432267142    0.0632627151334771 Bi
   0.1252336201093367    0.3887744232638271    0.0632707341955897 Bi
   0.2499638244472298    0.5555540505365288    0.0632162713987420 Bi
   0.3751216936051762    0.7222009810469077    0.0632089205918055 Bi
   0.5001053952213437    0.8888065873060440    0.0632436698609598 Bi
   0.1250475232838741    0.0555815770794398    0.0631872022985840 Bi
   0.2500216814730947    0.2222069271475031    0.0631965578710486 Bi
   0.3747912524471435    0.3887418230211802    0.0632744095990579 Bi
   0.5000093644876915    0.5556734317067848    0.0632383238195515 Bi
   0.6248916671925492    0.7221688399626081    0.0632049110607492 Bi
   0.7498747723445325    0.8889397432267142    0.0632633833886532 Bi
   0.3749666129172908    0.0557537614596166    0.0632196126746222 Bi
   0.4999676119947993    0.2222409048651914    0.0632423333506077 Bi
   0.6252316517775289    0.3887758007388685    0.0632707341955897 Bi
   0.7499582773303169    0.5555494589530574    0.0632169396539180 Bi
   0.8751203217375526    0.7222055726303791    0.0632102571021575 Bi
   0.0001024725468412    0.8888065873060440    0.0632433357333718 Bi
   0.6250467478804347    0.0555779038126627    0.0631882046813480 Bi
   0.7500238883905762    0.2222073863058503    0.0631962237434606 Bi
   0.8747863017944147    0.3887418230211802    0.0632734072162939 Bi
   0.0000135993833992    0.5556734317067848    0.0632389920747275 Bi
   0.8749652410496672    0.0557546797763109    0.0632199468022102 Bi
  -0.0000322687123639    0.2222404457068442    0.0632423333506077 Bi
   0.1252264625391265    0.7223525033014634    0.2700786706747276 Bi
   0.2499799289802025    0.8888295452234011    0.2701401501509238 Bi
   0.1249121259140664    0.3889415569021854    0.2701485033406244 Bi
   0.2499870865504126    0.5555816000373571    0.2701107469231778 Bi
   0.3747996029457219    0.7223341369675779    0.2700639690608546 Bi
   0.5000028033816656    0.8888295452234011    0.2700943746713647 Bi
   0.1250373833927431    0.0555361204030731    0.2701080739024736 Bi
   0.2497842887277932    0.2222138145227102    0.2701047326265934 Bi
   0.3750954491810725    0.3889309962602012    0.2701368088750435 Bi
   0.4999884882412455    0.5554392609497443    0.2700900310127203 Bi
   0.6252316517775289    0.7223570948849347    0.2700786706747276 Bi
   0.7499821358976839    0.8888295452234011    0.2701391477681597 Bi
   0.3749636305963699    0.0554801030847222    0.2700793389299036 Bi
   0.5001859178862073    0.2222941672334594    0.2701030619886533 Bi
   0.6249095611180745    0.3889415569021854    0.2701478350854483 Bi
   0.7499881005395257    0.5555816000373571    0.2701110810507658 Bi
   0.8748041957199399    0.7223341369675779    0.2700643031884426 Bi
   0.0000029823209209    0.8888295452234011    0.2700943746713647 Bi
   0.6250348185967511    0.0555356612447259    0.2701084080300616 Bi
   0.7497853027169062    0.2222138145227102    0.2701047326265934 Bi
   0.8750964631701856    0.3889319145768955    0.2701364747474556 Bi
  -0.0000089469627626    0.5554438525332156    0.2700910333954845 Bi
   0.8749652410496672    0.0554801030847222    0.2700790048023156 Bi
   0.0001874090466677    0.2222941672334594    0.2701030619886533 Bi
   0.0000719932270299    0.6666611873770575    0.3966127882589705 Bi
   0.1252234802182057    0.8331703703832950    0.3965426214654856 Bi
  -0.0001333097451631    0.3334247211496921    0.3965493040172461 Bi
   0.1251363964473162    0.5000693558683352    0.3965760342242879 Bi
   0.2498904593525763    0.6665326230398588    0.3965693516725275 Bi
   0.3748234615130889    0.8333448505552075    0.3965927406036891 Bi
   0.0000066803988628    0.0001448185426874    0.3965693516725275 Bi
   0.1248984072378304    0.1665720876997953    0.3965426214654856 Bi
   0.2501171157425627    0.3334899216349858    0.3965426214654856 Bi
   0.3748628281492444    0.5000234400336214    0.3965793755001681 Bi
   0.5000725896912140    0.6666565957935862    0.3966127882589705 Bi
   0.6252197224938454    0.8331703703832950    0.3965426214654856 Bi
   0.2499811219085709    0.0001070298107179    0.3965526452931263 Bi
   0.3750930633243359    0.1666056062591364    0.3965593278448867 Bi
   0.4998614413700161    0.3334251803080392    0.3965493040172461 Bi
   0.6251362175080609    0.5000693558683352    0.3965760342242879 Bi
   0.7498926662700578    0.6665372146233303    0.3965693516725275 Bi
   0.8748220896454653    0.8333448505552075    0.3965927406036891 Bi
   0.5000051892384023    0.0001436247309849    0.3965693516725275 Bi
   0.6248916671925492    0.1665679552746711    0.3965426214654856 Bi
   0.7501193226600442    0.3334954315351514    0.3965459627413659 Bi
   0.8748578774965158    0.5000234400336214    0.3965793755001681 Bi
   0.7499821358976839    0.0001064329048667    0.3965526452931263 Bi
   0.8750964631701856    0.1666046879424421    0.3965593278448867 Bi
  -0.0001212015222243    0.6666979200448285    0.6034511303486184 Bi
   0.1250105425044553    0.8334412738081064    0.6034711780038998 Bi
   0.0000212937713750    0.3333136048296846    0.6034344239692172 Bi
   0.1249109329856981    0.4998627346121230    0.6034544716244987 Bi
   0.2501147298858260    0.6667622022134280    0.6034477890727382 Bi
   0.3749964361264996    0.8333494421386788    0.6034611541762591 Bi
   0.0000346545691006   -0.0001809083887725    0.6034277414174568 Bi
   0.1251894817597077    0.1668425319662598    0.6034076937621755 Bi
   0.2499292295245477    0.3332295788521583    0.6034411065209777 Bi
   0.3751246759260971    0.4999361999476651    0.6034578129003789 Bi
   0.4998775459029889    0.6666979200448285    0.6034477890727382 Bi
   0.6250109600293842    0.8334458653915778    0.6034711780038998 Bi
   0.2499423517365995    0.0000142339087613    0.6034544716244987 Bi
   0.3748234615130889    0.1668016668733645    0.6034010112104150 Bi
   0.5000272584132168    0.3333136048296846    0.6034344239692172 Bi
   0.6249155257599163    0.4998581430286517    0.6034544716244987 Bi
   0.7501193226600442    0.6667667937968993    0.6034477890727382 Bi
   0.8749950642588760    0.8333494421386788    0.6034611541762591 Bi
   0.5000368018401636   -0.0001798982404088    0.6034277414174568 Bi
   0.6251898992846366    0.1668393178578298    0.6034076937621755 Bi
   0.7499344187629500    0.3332337112772826    0.6034411065209777 Bi
   0.8751203217375526    0.4999361999476651    0.6034578129003789 Bi
   0.7499403834047917    0.0000191469030757    0.6034544716244987 Bi
   0.8748161250036235    0.1668012077150173    0.6034043524862952 Bi
  -0.0000154484223701    0.6664178334530743   -0.0000869065856447 Se
   0.1247319937304457    0.8333999495568640   -0.0000782860938737 Se
  -0.0001043215858122    0.3336203226055731    0.0000153030435314 Se
   0.1248035694325466    0.4997709029426953    0.0000686966320975 Se
   0.2500753632496705    0.6664361997869598   -0.0000003007148292 Se
   0.3752189172671967    0.8334274990576923   -0.0000568351027227 Se
  -0.0004459762705075   -0.0000015611383803    0.0000240237735788 Se
   0.1248632158509641    0.1669362002690760    0.0000147684393906 Se
   0.2501707975191385    0.3335537446452380   -0.0000298710063692 Se
   0.3751151324991503    0.4997158039410388   -0.0000143006607674 Se
   0.4999861023845087    0.6664178334530743   -0.0000879423811676 Se
   0.6247306218628221    0.8333999495568640   -0.0000791882383614 Se
   0.2504457675080430    0.0000235548232082   -0.0000113603379928 Se
   0.3751616567055160    0.1668361037493998   -0.0000601763786029 Se
   0.4998948433643299    0.3336207817639202    0.0000159712987075 Se
   0.6248021975649229    0.4997709029426953    0.0000691309979619 Se
   0.7500775701671519    0.6664361997869598    0.0000006682551760 Se
   0.8752217206488624    0.8334320906411636   -0.0000576035961751 Se
   0.4995542623151663   -0.0000005050741819    0.0000234557566792 Se
   0.6248618439833405    0.1669362002690760    0.0000155703456019 Se
   0.7501670397947782    0.3335542038035851   -0.0000295702915400 Se
   0.8751143570957108    0.4997158039410388   -0.0000128973248977 Se
   0.7504473779613403    0.0000232793281999   -0.0000113269252340 Se
   0.8751620742304449    0.1668365629077470   -0.0000611119358494 Se
   0.1250039813984294    0.7221275157113656    0.8761694089687263 Se
   0.2500771526422230    0.8888525031407579    0.8761393374858042 Se
   0.1250636278168469    0.3889856361035107    0.8761025834511218 Se
   0.2499602456621247    0.5555035431183436    0.8761259723822833 Se
   0.3750125406594723    0.7221917978799649    0.8761627264169659 Se
   0.4998990186136192    0.8889030105589432    0.8761426787616845 Se
   0.1249341950888809    0.0556472367230805    0.8761460200375648 Se
   0.2500807314273280    0.2222060088308088    0.8761293136581635 Se
   0.3749695952382117    0.3888515618661463    0.8760925596234811 Se
   0.5000809401897925    0.5555632337034716    0.8761092660028822 Se
   0.6250049953875425    0.7221321072948369    0.8761694089687263 Se
   0.7500775701671519    0.8888525031407579    0.8761393374858042 Se
   0.3750411709403127    0.0556325436559721    0.8761660676928461 Se
   0.4999342100004855    0.2222216202146116    0.8761226311064031 Se
   0.6250586771641182    0.3889847177868164    0.8761025834511218 Se
   0.7499582773303169    0.5555035431183436    0.8761259723822833 Se
   0.8750129581844012    0.7221963894634363    0.8761627264169659 Se
  -0.0001010410327992    0.8889076021424146    0.8761426787616845 Se
   0.6249393843272832    0.0556463184063863    0.8761460200375648 Se
   0.7500894994508354    0.2222027947223789    0.8761293136581635 Se
   0.8749712056915090    0.3888506435494520    0.8760925596234811 Se
   0.0000852943783370    0.5555586421200003    0.8761092660028822 Se
   0.8750427813936099    0.0556334619726664    0.8761660676928461 Se
  -0.0000615551038068    0.2222225385313058    0.8761226311064031 Se
   0.0000880381135842    0.6666887368778859    0.7905726034690396 Se
   0.1249532819427745    0.8331933283006518    0.7905659209172792 Se
   0.0000682355026696    0.3333870701652268    0.7905325081584770 Se
   0.1250391727852957    0.5000923137856922    0.7905124605031955 Se
   0.2498982133869706    0.6666887368778859    0.7905391907102374 Se
   0.3750280487282608    0.8332208778014800    0.7905692621931594 Se
  -0.0001247803073294   -0.0000160705421498    0.7905558970896385 Se
   0.1249872804012725    0.1667300381712109    0.7905659209172792 Se
   0.2499501057709938    0.3334123238743194    0.7905525558137583 Se
   0.3749642270605542    0.4999775241989076    0.7905325081584770 Se
   0.5000922730092918    0.6666887368778859    0.7905726034690396 Se
   0.6249513136109668    0.8331933283006518    0.7905659209172792 Se
   0.2501350096680879   -0.0000535378632763    0.7905492145378781 Se
   0.3750489249747069    0.1666285641764933    0.7905425319861176 Se
   0.5000725896912140    0.3333866110068796    0.7905325081584770 Se
   0.6250407832385930    0.5000923137856922    0.7905124605031955 Se
   0.7498986309118995    0.6666887368778859    0.7905425319861176 Se
   0.8750308521099264    0.8332208778014800    0.7905692621931594 Se
   0.4998751600462522   -0.0000138206662489    0.7905558970896385 Se
   0.6249871014620172    0.1667332522796408    0.7905659209172792 Se
   0.7499463480466335    0.3334137013493608    0.7905525558137583 Se
   0.8749592764078254    0.4999775241989076    0.7905325081584770 Se
   0.7501372165855694   -0.0000539511057888    0.7905492145378781 Se
   0.8750427813936099    0.1666317782849233    0.7905425319861176 Se
   0.1247409406932083    0.6113280149634196    0.3332758968009523 Se
   0.2501773586251644    0.7775111955431887    0.3333661112497184 Se
   0.1247475017992342    0.2777265178500792    0.3334479725087840 Se
   0.2500920642468274    0.4446962366784963    0.3332992857321139 Se
   0.3751950586998298    0.6113922971320189    0.3333370421495604 Se
   0.4999216842526178    0.7774652797084750    0.3333096436873425 Se
   0.1248823027048577    0.9441719008039817    0.3333517437634334 Se
   0.2502018136567155    0.1109289834018390    0.3333220064080994 Se
   0.3752177243388284    0.2775782097039535    0.3333400492978527 Se
   0.4999890847054296    0.4447536314718886    0.3334516479122522 Se
   0.6247425511465056    0.6113326065468909    0.3332742261630122 Se
   0.7501789690784616    0.7775111955431887    0.3333661112497184 Se
   0.3750739764704423    0.9441810839709246    0.3333333667460922 Se
   0.4998870893299356    0.1109018930593578    0.3331933672867106 Se
   0.6247485157883473    0.2777265178500792    0.3334493090191361 Se
   0.7500954640926771    0.4446962366784963    0.3332992857321139 Se
   0.8751978620814953    0.6113877055485476    0.3333380445323245 Se
  -0.0000782561009637    0.7774698712919463    0.3333103119425186 Se
   0.6248797379088658    0.9441719008039817    0.3333517437634334 Se
   0.7502028276458287    0.1109299017185333    0.3333226746632755 Se
   0.8752157560070206    0.2775786688623006    0.3333410516806167 Se
  -0.0000105574160599    0.4447550089469300    0.3334519820398403 Se
   0.8750726046028187    0.9441810839709246    0.3333337008736802 Se
  -0.0001103458740723    0.1109018930593578    0.3331933672867106 Se
   0.0000023262103183    0.6667346527125997    0.2094532245935146 Se
   0.1249968238282193    0.8332392441353655    0.2094766135246762 Se
   0.0000167606435753    0.3332851370121621    0.2094986659454857 Se
   0.1248584441374907    0.4999729326154362    0.2094558976142188 Se
   0.2500025946192012    0.6667989348811990    0.2094248237485327 Se
   0.3750059795534463    0.8332254693849515    0.2094819595660846 Se
  -0.0000860101353580    0.0001178659477104    0.2094358499589374 Se
   0.1250654172093994    0.1667617200971634    0.2094321745554692 Se
   0.2499906653355176    0.3331331555992593    0.2095137016869467 Se
   0.3751449557083591    0.4999821157823789    0.2094555634866307 Se
   0.5000033998458497    0.6667300611291282    0.2094528904659266 Se
   0.6249990307457007    0.8332392441353655    0.2094742746315600 Se
   0.2500807314273280    0.0001198862444378    0.2094679262073876 Se
   0.3749218781034777    0.1667883512812975    0.2094448714038140 Se
   0.5000171185220859    0.3332855961705092    0.2094986659454857 Se
   0.6248558793414988    0.4999729326154362    0.2094552293590427 Se
   0.7499940651813675    0.6668035264646703    0.2094251578761207 Se
   0.8750069935425594    0.8332254693849515    0.2094799548005564 Se
   0.4999163160749603    0.0001174986210327    0.2094345134485853 Se
   0.6250646418059599    0.1667617200971634    0.2094328428106452 Se
   0.7499940651813675    0.3331336147576064    0.2095130334317707 Se
   0.8751382156630779    0.4999775241989076    0.2094565658693948 Se
   0.7500775701671519    0.0001195189177601    0.2094669238246235 Se
   0.8749234885567749    0.1667888104396446    0.2094452055314021 Se
   0.1248709698853584    0.6111535347915070    0.1238941755112745 Se
   0.2499924547280702    0.7779887202242126    0.1238370396937226 Se
   0.1250194894672179    0.2779147727724059    0.1238768008766973 Se
   0.2499847006936759    0.4443009013416102    0.1239342708218373 Se
   0.3751157289633345    0.6111581263749783    0.1238951778940386 Se
   0.5000016104532973    0.7777958737184144    0.1238657746662926 Se
   0.1250761535647145    0.9443647473097798    0.1239155596769080 Se
   0.2500449435762775    0.1110814239730889    0.1238564190938279 Se
   0.3750047866250780    0.2778899782216604    0.1238674453042327 Se
   0.5000206973071908    0.4443367156926870    0.1238921707457464 Se
   0.6248797379088658    0.6111535347915070    0.1238918366181584 Se
   0.7500000298232091    0.7779841286407412    0.1238370396937226 Se
   0.3749063700346891    0.9443050567246518    0.1239105477630877 Se
   0.4999556827111158    0.1110828014481303    0.1238901659802183 Se
   0.6250169246712259    0.2779143136140588    0.1238768008766973 Se
   0.7499821358976839    0.4443036562916930    0.1239336025666612 Se
   0.8751143570957108    0.6111581263749783    0.1238948437664506 Se
   0.0000012525747868    0.7777958737184144    0.1238677794318207 Se
   0.6250765710896434    0.9443647473097798    0.1239155596769080 Se
   0.7500477469579432    0.1110814239730889    0.1238557508386519 Se
   0.8750010289007177    0.2778886007466190    0.1238681135594087 Se
   0.0000235006888565    0.4443413072761584    0.1238931731285105 Se
   0.8749055946312497    0.9443050567246518    0.1239102136354996 Se
  -0.0000441383496289    0.1110814239730889    0.1238901659802183 Se
   0.1247140998049204    0.7222744463824499    0.6665243951396866 Se
   0.2503485438460225    0.8889948422283708    0.6666780938301771 Se
   0.1250552773182684    0.3886527463018354    0.6666647287266563 Se
   0.2499507022351780    0.5555310926191720    0.6664575696220820 Se
   0.3753107727515597    0.7224213770535340    0.6666647287266563 Se
   0.4997463237824705    0.8891096318151555    0.6667348955201410 Se
   0.1246425241028195    0.0557252936420941    0.6665811968296504 Se
   0.2500962394961166    0.2219869902992239    0.6667148478648597 Se
   0.3749260533527669    0.3885893824499303    0.6665912206572912 Se
   0.5000880977600026    0.5556550653728992    0.6665177125879261 Se
   0.6247127279372968    0.7222744463824499    0.6665243951396866 Se
   0.7503459790500306    0.8889948422283708    0.6666780938301771 Se
   0.3753316489980058    0.0556903976077116    0.6665177125879261 Se
   0.4999938564189030    0.2219185757055003    0.6665912206572912 Se
   0.6250586771641182    0.3886522871434882    0.6666647287266563 Se
   0.7499523126884752    0.5555356842026433    0.6664575696220820 Se
   0.8753111902764886    0.7224213770535340    0.6666647287266563 Se
  -0.0002534376318559    0.8891096318151555    0.6667348955201410 Se
   0.6246411522351959    0.0557257528004412    0.6665845381055306 Se
   0.7500954640926771    0.2219888269326124    0.6667181891407399 Se
   0.8749234885567749    0.3885880049748889    0.6665945619331713 Se
   0.0000872627101448    0.5556550653728992    0.6665210538638063 Se
   0.8753350488438556    0.0556908567660587    0.6665177125879261 Se
  -0.0000065611060259    0.2219185757055003    0.6665878793814110 Se
   0.1250159106821129    0.6110617031220793    0.5428169969501168 Se
   0.2499930511922544    0.7776856757151013    0.5428136556742366 Se
   0.1250636278168469    0.2776764695902411    0.5427869254671949 Se
   0.2499703855532557    0.4444473728543473    0.5428002905707157 Se
   0.3749695952382117    0.6111581263749783    0.5427936080189553 Se
   0.4999777518859303    0.7777178167994009    0.5428370446053983 Se
   0.1248990037020146    0.9444795368965645    0.5428169969501168 Se
   0.2499781395876500    0.1112779437456641    0.5427702190877935 Se
   0.3749350003155296    0.2776975908742095    0.5427601952601530 Se
   0.5000743790837665    0.4445180832398067    0.5427869254671949 Se
   0.6250169246712259    0.6110662947055507    0.5428169969501168 Se
   0.7499940651813675    0.7776810841316300    0.5428136556742366 Se
   0.3750906774675992    0.9444565789792074    0.5428069731224762 Se
   0.5000099609518757    0.1111668274256566    0.5428002905707157 Se
   0.6250586771641182    0.2776796836986711    0.5427902667430751 Se
   0.7499642419721587    0.4444510461211245    0.5428002905707157 Se
   0.8749652410496672    0.6111627179584498    0.5427936080189553 Se
  -0.0000249918493169    0.7777178167994009    0.5428370446053983 Se
   0.6248976318343910    0.9444795368965645    0.5428136556742366 Se
   0.7499761712558423    0.1112774845873170    0.5427668778119134 Se
   0.8749413824823001    0.2776962133991681    0.5427635365360332 Se
   0.0000797472614242    0.4445171649231123    0.5427869254671949 Se
   0.8750904985283440    0.9444519873957360    0.5428069731224762 Se
   0.0000196833180778    0.1111668274256566    0.5428002905707157 Se
   0.1249246516619341    0.7222514884650929    0.4572268740021906 Se
   0.2500258567223840    0.8888157704729870    0.4572402391057115 Se
   0.1250785394214512    0.3888524801828405    0.4572201914504302 Se
   0.2499435446649678    0.5555356842026433    0.4572335565539511 Se
   0.3750244699431558    0.7223295453841064    0.4572302152780709 Se
   0.4999807342068512    0.8887239388035592    0.4572268740021906 Se
   0.1248996001661988    0.0556247379640708    0.4572168501745499 Se
   0.2500145239028846    0.2223446746516446    0.4571533659328256 Se
   0.3749260533527669    0.3888488069160635    0.4572402391057115 Se
   0.5000397841610844    0.5555770084538858    0.4572602867609930 Se
   0.6249274550435997    0.7222560800485643    0.4572268740021906 Se
   0.7500298530324180    0.8888157704729870    0.4572402391057115 Se
   0.3751002208945460    0.0556284112308479    0.4572268740021906 Se
   0.4999902776337979    0.2221913157637004    0.4572135088986697 Se
   0.6250825357314851    0.3888488069160635    0.4572168501745499 Se
   0.7499523126884752    0.5555310926191720    0.4572368978298313 Se
   0.8750308521099264    0.7223249538006351    0.4572302152780709 Se
  -0.0000179535719437    0.8887239388035592    0.4572268740021906 Se
   0.6249035964762328    0.0556293295475421    0.4572201914504302 Se
   0.7500119591068927    0.2223469704433803    0.4571533659328256 Se
   0.8749175239149333    0.3888501843911049    0.4572435803815918 Se
   0.0000356685582137    0.5555770084538858    0.4572602867609930 Se
   0.8751024278120274    0.0556311661809307    0.4572268740021906 Se
  -0.0000181921576173    0.2221913157637004    0.4572135088986697 Se
