Bi2
1.0
   3.4689501472752551    0.0030715241464278    3.6370383155242916
   1.4583843135332140    3.1474975188363743    3.6370383155242916
   0.0048031244642688    0.0030715139254918    5.0260964832737951
Bi
2
direct
   0.5000000000000000    0.5000000000000000    0.5000000000000000 Bi
  -0.0000000000000000    0.0000000000000000   -0.0000000000000000 Bi
