Bi2 Se5
1.0
   4.8887541264942351   -2.9403068239668100   -0.0131024277250601
   4.8887403094310669    2.9402846216605241   -0.0130430597907165
   3.1330030979675065    0.0000410587766481    4.7675709647083480
Bi Se
2 5
direct
  -0.0000000000000000   -0.0000000000000000   -0.0000000000000000 Bi
   0.5000000000000000    0.5000000000000000    0.5000000000000000 Bi
  -0.0000000000000000   -0.0000000000000000    0.5000000000000000 Se
   0.5000000000000000   -0.0000000000000000   -0.0000000000000000 Se
  -0.0000000000000000    0.5000000000000000   -0.0000000000000000 Se
   0.7124405400000000    0.7124089700000000    0.7124504300000000 Se
   0.2875594600000000    0.2875910300000000    0.2875495700000000 Se
