Bi144 Se216
1.0
  16.8710670000000000    0.0000000000000000    0.0000000000000000
   0.0000000000000000   22.0584039999999995    0.0000000000000000
   0.0000000000000000    0.0000000000000000   29.9286870000000000
Bi Se
144 216
direct
   0.1477221328087903    0.5978537703815743    0.7217957807504218 Bi
   0.2499895234841993    0.7485945039360055    0.7277232041619468 Bi
   0.1408749073191399    0.2595319226177923    0.7214282404035968 Bi
   0.2589990307074235    0.4301358339433805    0.7166769461019122 Bi
   0.3779879482429890    0.5878802473651312    0.7377637381820326 Bi
   0.5027168702489297    0.7596651144842574    0.7337174530910762 Bi
   0.1334681440124682    0.9347140436814921    0.7248263179737889 Bi
   0.2789432345920979    0.0819175312955552    0.7241313325907014 Bi
   0.3989083796537587    0.2604862074336838    0.7332697221231256 Bi
   0.5230724292660328    0.4304935207461066    0.7307169873506312 Bi
   0.6318983855615059    0.5880525173081426    0.7205728737782583 Bi
   0.7490753252298743    0.7481819627566889    0.7311346468356599 Bi
   0.3636088932608708    0.9248719898320839    0.7300520734504659 Bi
   0.5164907471471720    0.0884365886126666    0.7325513478088765 Bi
   0.6247915440084495    0.2559328408347222    0.7222669006495340 Bi
   0.7511735920437042    0.4208844846617189    0.7208268107451556 Bi
   0.8825286509738832    0.5858583422445250    0.7329456183627434 Bi
   0.9873175182103182    0.7626707716478490    0.7212979306442678 Bi
   0.6208380299835214    0.9310510406827258    0.7220163049585170 Bi
   0.7424841594191998    0.0854390916042702    0.7249365800778365 Bi
   0.8771466558694836    0.2633971161286193    0.7110736264507695 Bi
   0.0084653211323267    0.4336206735537168    0.7270883617447034 Bi
   0.8771288739473324    0.9241965103186975    0.7374730471804527 Bi
   0.9753680665247788    0.0974522000775759    0.7209972158150473 Bi
   0.1307735900758381    0.6003879519116615    0.9453171133100494 Bi
   0.2521399506030057    0.7678524701968464    0.9447424138586501 Bi
   0.1359564276521455    0.2600020382254310    0.9374317022327108 Bi
   0.2451753644271580    0.4313403635185936    0.9471548150441750 Bi
   0.3625870254679209    0.5822180063435233    0.9402116437650606 Bi
   0.5123908286298667    0.7430274647250091    0.9446789296169258 Bi
   0.1473078140226697    0.9232671593103472    0.9456846536568745 Bi
   0.2532791790821529    0.1030677468777886    0.9390288321034599 Bi
   0.3700228325807727    0.2810788124109070    0.9544755504977549 Bi
   0.5134921223417582    0.4092834640257745    0.9425806083641425 Bi
   0.6442805306860555    0.5822270731826291    0.9500483599564526 Bi
   0.7267234490859410    0.7375510939050713    0.9454507643452585 Bi
   0.3765001940896803    0.9242282442555680    0.9465132900751710 Bi
   0.5108171285194942    0.1096520854364622    0.9542249548067379 Bi
   0.6338840335350455    0.2504038823479704    0.9315677630629103 Bi
   0.7682501646161443    0.4112981156750960    0.9394364677608477 Bi
   0.8734598706768220    0.6020426500484803    0.9393061580015188 Bi
   0.9821963246308012    0.7666239134980027    0.9462159165218308 Bi
   0.6131325303847113    0.9304526293017391    0.9308326823692600 Bi
   0.7552575068310736    0.0959439313923165    0.9548464321204603 Bi
   0.8946499945735501    0.2617750586125814    0.9422264331208383 Bi
   0.9932863167457042    0.4329569809311680    0.9500483599564526 Bi
   0.8807148949144710    0.9190556125456765    0.9336460366604121 Bi
   0.0016573936906302    0.0933884427903306    0.9415882494277147 Bi
   0.1085106235426603    0.6962108410019148    0.0476633004314556 Bi
   0.2415911216522345    0.8744694312426230    0.0573636925669342 Bi
   0.1278283110368775    0.3696609237912226    0.0633779891513450 Bi
   0.2544130729846548    0.5176757121684779    0.0783956877226188 Bi
   0.4026425833054898    0.7171189719800217    0.0565226934278808 Bi
   0.4967545917516657    0.8658060664769762    0.0573122369183787 Bi
   0.1147153289119177    0.0362296837069445    0.0574027854947329 Bi
   0.2549139304585774    0.2181907630307252    0.0574435490604717 Bi
   0.3846217906668262    0.3703110161551125    0.0527376961107582 Bi
   0.5132988921210496    0.5377270268510813    0.0557164435579817 Bi
   0.6366224495463150    0.6952588228957997    0.0572130010247359 Bi
   0.7488500875492937    0.8872536743818819    0.0561003561566199 Bi
   0.3667106532147611    0.0446018216005111    0.0582180568095086 Bi
   0.5041453513284014    0.2157164226387367    0.0644291545432648 Bi
   0.6353006599997498    0.3837426316065297    0.0606682144124799 Bi
   0.7418499375291439    0.5331482731026234    0.0637572239637509 Bi
   0.8606331774984949    0.7022856232028392    0.0695610201677073 Bi
   0.9947266524399434    0.8649764506987903    0.0573687044807545 Bi
   0.6174535374674286    0.0426356322062104    0.0499076354402049 Bi
   0.7514284662612033    0.2094222229314505    0.0574348617431831 Bi
   0.8858953615678249    0.3694147591094986    0.0626161782506530 Bi
  -0.0052135410285550    0.5266518828832766    0.0602806264103734 Bi
   0.8804185295452860    0.0389873174867955    0.0644268156501486 Bi
   0.0082939626758640    0.2168883115931687    0.0544367348958543 Bi
   0.1271407433803683    0.7000869147196688    0.2729922632422866 Bi
   0.2587814985264417    0.8667626180026442    0.2682623531062355 Bi
   0.1391548027163901    0.3614509009808687    0.2752847126237112 Bi
   0.2667252758820767    0.5188498678326864    0.2716938434352299 Bi
   0.3854225698943641    0.6976751355175107    0.2683392024514808 Bi
   0.5059762965792264    0.8695597378668013    0.2827170466916908 Bi
   0.1335226752403983    0.0336881580371817    0.2642521537947856 Bi
   0.2503665002338026    0.2005158668777669    0.2645976417208012 Bi
   0.4061817785442971    0.3704660591038227    0.2759095312133139 Bi
   0.5098895049139452    0.5465173273642101    0.2625821841098475 Bi
   0.6482933177848206    0.7094121587400430    0.2805141435038563 Bi
   0.7626962775976172    0.8671615589233019    0.2628989370632932 Bi
   0.3819278294609345    0.0213262935976692    0.2686041656287829 Bi
   0.5111656541936559    0.1823454679676734    0.2622256699734272 Bi
   0.6564078015931061    0.3709239344786686    0.2794298994807223 Bi
   0.7459634888534317    0.5283111144396485    0.2560687009089306 Bi
   0.8855397231248029    0.7232164212787108    0.2641098154422879 Bi
   0.0014650525660292    0.8820085079591433    0.2590885460494809 Bi
   0.6408189831739747    0.0295974269035965    0.2827334189435040 Bi
   0.7722214605632234    0.1989087696462536    0.2738098734501784 Bi
   0.8789900484658142    0.3767938061158005    0.2735983706869600 Bi
   0.0199328827275714    0.5294399359083277    0.2649230819915354 Bi
   0.8518548352632350    0.0224404267869969    0.2861020932859500 Bi
   0.0249527786239009    0.1949075735488388    0.2717145593456873 Bi
   0.0134535059341534    0.6528396161390462    0.3834748914979131 Bi
   0.1069197342408752    0.8097322000268016    0.3747140661399547 Bi
   0.0153920318139926    0.3132067034405571    0.3831908830480937 Bi
   0.1271081431897579    0.4908696023520106    0.3885335831805786 Bi
   0.2598258900874497    0.6511078498698274    0.3773436502576943 Bi
   0.3582571274241279    0.8118039727624899    0.3784830253328521 Bi
   0.0072593511720391    0.9792322236912516    0.3875044702094683 Bi
   0.1228979767551157    0.1478316382273169    0.3717704020894736 Bi
   0.2524961817767661    0.3059437119748101    0.3897899029115444 Bi
   0.3730202719247099    0.4712036283314060    0.4010834153867158 Bi
   0.4923500096348380    0.6569242271562349    0.3922357168558715 Bi
   0.6439011830134987    0.8106706178742579    0.3757932982492684 Bi
   0.2548030898105022    0.9687192237480101    0.3923626853393202 Bi
   0.3816741407049121    0.1451650808462842    0.3732071507179717 Bi
   0.5192107885055520    0.3111027434260429    0.3824123657680005 Bi
   0.6490283039003993    0.4738738124480810    0.3891884732531033 Bi
   0.7855401202543977    0.6582162517288195    0.3880490981779455 Bi
   0.8920656885542568    0.8119581090272895    0.3910896592289532 Bi
   0.5087834693561468    0.9761086976192839    0.4009998834897101 Bi
   0.6319576586353429    0.1432148037546143    0.3929774801012821 Bi
   0.7730394289821740    0.3167590910022320    0.3804176240675042 Bi
   0.8903645513351348    0.4754287753547355    0.3868028022746203 Bi
   0.7712612367670639    0.9861728890267853    0.3995698174129724 Bi
   0.8957880375912205    0.1420016606822506    0.3999373577597975 Bi
   0.0050644692478549    0.6583250537980898    0.6079217574763637 Bi
   0.1353589550678686    0.8143426877121300    0.6163685029015807 Bi
   0.0081972290193620    0.3251164499480561    0.6062778497432915 Bi
   0.1415085364784575    0.4665432730309954    0.6095990779682383 Bi
   0.2549394178803273    0.6581618506941844    0.6051585223234150 Bi
   0.3722870640013462    0.8209206794834295    0.6128334330202992 Bi
   1.0140970929698754    0.9741457269528656    0.6115637481858126 Bi
   0.1151906989640904    0.1458523472505082    0.6105045637317802 Bi
   0.2728280315643344    0.3118221971090928    0.6229307687303489 Bi
   0.4002764021979167    0.4945326053507769    0.5868784019826864 Bi
   0.4908640336737445    0.6618293871125037    0.6126362977433658 Bi
   0.6366402314684660    0.7980903786148807    0.6129704253313887 Bi
   0.2418608141381929    0.9815306674045865    0.6190782776404458 Bi
   0.3900233458855922    0.1535015860621648    0.6207221853735181 Bi
   0.5196073253695217    0.3112437327741391    0.5957461481688121 Bi
   0.6408486197108931    0.4742682199491858    0.6098830864180578 Bi
   0.7596022231433258    0.6519782664239897    0.6233885235259402 Bi
   0.8628322085378477    0.7961772755635449    0.6171102661469914 Bi
   0.5011236100241910    0.9716160788423315    0.6165522730749933 Bi
   0.6335639589363257    0.1382656696286821    0.5913222989033901 Bi
   0.7765069038016386    0.3212458163337656    0.5937246762612741 Bi
   0.8704428712185186    0.4884714234085114    0.6190816189163261 Bi
   0.7438533674248344   -0.0211979071559302    0.6028329943107763 Bi
   0.8741000198742616    0.1546807284878815    0.5987700028404187 Bi
   0.9909035391774569    0.6419594092120173   -0.0050635365326919 Se
   0.1283919979690674    0.8003797554891098    1.0035989884888703 Se
   0.0001283262048571    0.3214570736849321   -0.0095276481724708 Se
   0.1212970110307783    0.4903890598794001    0.0046839007671803 Se
   0.2665699804286237    0.6555143336752740    0.0013077085540037 Se
   0.3762085705664022    0.8075833591587134    0.9952190685812579 Se
   0.0086995090470567    0.9743089300567711    1.0042137832508322 Se
   0.1287992039863276    0.1404117904450385    1.0000371884005470 Se
   0.2432063129142929    0.3225414676419926    0.0112256177492852 Se
   0.3790264124966133    0.4824057080466927    1.0013636749249977 Se
   0.5115538928272882    0.6451101358013027   -0.0039367580676025 Se
   0.6252775832139128    0.8147416286327878   -0.0012889639963156 Se
   0.2340575139675516    0.9861864892854442   -0.0004403801610141 Se
   0.3765298306265987    0.1692252984395426    0.0063097321977406 Se
   0.5086453630941067    0.3158424335686299    0.0073388117560921 Se
   0.6517726472190526    0.4704284135878552   -0.0066151582259522 Se
   0.7538171711368344    0.6409257895539496    0.0142372433511701 Se
   0.8657188072337096    0.8029003367605381    1.0006252529554671 Se
   0.4808901535391922    0.9926012779528383    1.0004748955408569 Se
   0.6335876681658604    0.1627651755766192    0.0067040695771251 Se
   0.7577943943912973    0.3214461934780050    0.0086256707486032 Se
   0.8807089676070873    0.4786792371741854    0.0007348802170974 Se
   0.7482040110444703    0.9771604509555633   -0.0081737965985611 Se
   0.8924035450751276    0.1414386099737769    0.0095269465045359 Se
   0.1188010218915022    0.7165477611163528    0.8706128671799068 Se
   0.2452020373103847    0.8654343260736361    0.8909979913251791 Se
   0.1188650368112461    0.3821935621452939    0.8661054860174788 Se
   0.2350781962990248    0.5365120704108964    0.8933803210277819 Se
   0.3775078363449093    0.7096297628785836    0.8775393320796199 Se
   0.4867392204654276    0.8579859177481742    0.8887960905201088 Se
   0.1273025588719433    0.0302833786161501    0.8703555889371292 Se
   0.2586333158418492    0.2267888465548097    0.8843354872200040 Se
   0.3745963429580358    0.3726479939346473    0.8886390505537380 Se
   0.5055536795627686    0.5261350730542428    0.8820968323802512 Se
   0.6119115050636691    0.6790473145745267    0.8932901065790158 Se
   0.7283712405386096    0.8609779746531073    0.8743317072346007 Se
   0.3780063228958785    0.0416016952087739    0.8771684504569146 Se
   0.4799411916270619    0.2150740370880867    0.9034342201513885 Se
   0.6480028797230192    0.3737858822424324    0.8800987494038747 Se
   0.7594066219996636    0.5276447017653679    0.8810176002709375 Se
   0.8640354519367387    0.7138458430628072    0.8886724633125404 Se
   0.0248335211993409    0.8609462407162367    0.8831159215237208 Se
   0.6285731661192501    0.0649045143973245    0.8850672266377742 Se
   0.7691748245680016    0.1965640850534789    0.8829622228332302 Se
   0.8932511500309968    0.3687710135329827    0.8825980237622854 Se
   0.9904115726646097    0.5357277888282398    0.8831560168342835 Se
   0.8716876057690957    0.0466239533920949    0.8867011105432057 Se
  -0.0014240948720078    0.2032477055003617    0.8900490689751944 Se
   0.0089507676070518    0.6450149339906912    0.7851062761289863 Se
   0.1371377400137170    0.8221265690845084    0.7802380371714938 Se
   0.9900322249920529    0.3073041911826441    0.7818318257663627 Se
   0.1290789728948382    0.4853660310147552    0.7825568826323721 Se
   0.2630070759602816    0.6553511305713686    0.7882804882152030 Se
   0.3737819309235154    0.8245428817062195    0.7876924236602829 Se
   0.0053714444972568    0.0057505973686945    0.7829611770138798 Se
   0.1093623776136980    0.1690970026661947    0.7928647187228761 Se
   0.2487886510082616    0.3244804111847802    0.7876389632461993 Se
   0.3547191176467973    0.4657589914483387    0.7897005304643000 Se
   0.4871760630196063    0.6356080884183642    0.8076966423552093 Se
   0.6251886736031573    0.8169675376332758    0.7785707405072599 Se
   0.2572943371038714    0.9841781844234967    0.7837998372598171 Se
   0.3718508141779059    0.1542255731647675    0.7826337319776174 Se
   0.5219041569807055    0.3218501211601710    0.7916050577160302 Se
   0.6380805671627052    0.4897407808833313    0.7822795567343133 Se
   0.7279326197922159    0.6378022634819817    0.7911840569551214 Se
   0.8883966852837464    0.8150181672255165    0.7953940645642089 Se
   0.5101461573236594    0.9839061792503210    0.7894298871180015 Se
   0.6357807718978296    0.1620783625143505    0.7884742822162563 Se
   0.7651027643953995    0.3064156409502700    0.7719349666091266 Se
   0.8810823879722605    0.4718836412643453    0.7841306235719596 Se
   0.7737566331756017    0.9729443707713396    0.8001219699347319 Se
   0.8866659115277059    0.1521587871905873    0.7738896129990601 Se
   0.1371768602424494    0.5938416940772324    0.3291901846546092 Se
   0.2438085273444768    0.7580602839625206    0.3188516088260070 Se
   0.1412773714904932    0.2438571711715861    0.3225380385046628 Se
   0.2741278900735798    0.4192628804876363    0.3259458057749076 Se
   0.3792172717943684    0.5899973542963489    0.3262682388973496 Se
   0.5131216656302769    0.7399855402049940    0.3263220334390212 Se
   0.1170578007899560    0.9285712601872738    0.3358416625493795 Se
   0.2375623308235336    0.0911026926517440    0.3237766494734634 Se
   0.3664219933451749    0.2722359242309643    0.3231384657803398 Se
   0.5309142569346681    0.4440366583185256    0.3247436147132015 Se
   0.6517726472190526    0.5932251490180341    0.3306135681795864 Se
   0.7706744333360777    0.7719234809553764    0.3325304581520733 Se
   0.3750734912024236    0.9183710661931842    0.3291888481442571 Se
   0.5038104584612223    0.0886541927512072    0.3230943609387208 Se
   0.6350694950117856    0.2417577445766249    0.3183280308955752 Se
   0.7572194455750783    0.4283224661222090    0.3321829654605296 Se
   0.8902993509539142    0.5931163469487638    0.3355877255824821 Se
   0.0026468391121913    0.7674807297935065    0.3213786157742236 Se
   0.6570064596388598    0.9182123965088318    0.3352870107532616 Se
   0.7700757752903240    0.0968601354839634    0.3364932113460240 Se
   0.8987576185904542    0.2660301262049602    0.3244649523047904 Se
   0.0011134446920281    0.4271931913115745    0.3301257419010730 Se
   0.8778638600629112    0.9266717573945966    0.3419328084790355 Se
  -0.0017810373226542    0.0836855649211974    0.3303382470470556 Se
   1.0281033203175589    0.6367142427892789    0.2205506041745166 Se
   0.1173274932759143    0.8137034755551672    0.2157668994967939 Se
   0.0207119087370111    0.3124237818837663    0.2138453317380746 Se
   0.1503722319400427    0.4562433438067414    0.2084869276089526 Se
   0.2821238277341913    0.6486824704090105    0.1996836680473153 Se
   0.3952441182291553    0.8083087062871819    0.2243887277781348 Se
   1.0077015283028632    0.9876825177379106    0.2112839096482916 Se
   0.1254188605854034    0.1441396213434118    0.2055549580240523 Se
   0.2694050115502475    0.3003644325310209    0.2126428065487805 Se
   0.3968723495674577    0.4746036929961025    0.2041526245371205 Se
   0.5300180480582526    0.6416964708779475    0.2118405662099377 Se
   0.6311219082942412    0.8082633720916527    0.2287340570603716 Se
   0.2508964015139054    0.9855971447435635    0.2100810503314095 Se
   0.3868308981287313    0.1407572370149717    0.2112070603030464 Se
   0.5255660474823555    0.3405545568935994    0.2132462409727497 Se
   0.6229837152564209    0.4760543872530397    0.2001851935569375 Se
   0.7566444967588594    0.6592362711282285    0.2136892941544679 Se
   0.8817995921656880    0.8275802728066817    0.2067604903616387 Se
   0.5269992704077341    0.9789556850985230    0.2154992632987876 Se
   0.6546296093779960    0.1186336962547245    0.2207464029410980 Se
   0.7573676282596707    0.3186821675765844    0.2123734997128341 Se
   0.8801280914834846    0.4651696469064580    0.2091204335158439 Se
   0.7737151420239158    0.9703331211088526    0.2142994111301976 Se
   0.8816099183294097    0.1382643096028162    0.2232754146548427 Se
   0.1304120243254324    0.5908813711091699    0.1214931346637425 Se
   0.2376755423945622    0.7567501257117242    0.1246640054740791 Se
   0.1335653518535609    0.2667464064943230    0.1142679597003370 Se
   0.2650436987773209    0.4004482826590718    0.1165537265300012 Se
   0.3863247060781633    0.5916701861113796    0.1126975600366297 Se
   0.5196932713265853    0.7470259407706923    0.1227821988983346 Se
   0.1263998299574058    0.9094810304498910    0.1068797304739764 Se
   0.2351327275269549    0.1015835053161598    0.1152422757470116 Se
   0.3801834228979116    0.2704910110450420    0.1113222908843278 Se
   0.5028502346650630    0.4406143798980198    0.1096406267338089 Se
   0.6339610885310336    0.5898341511924434    0.1237628633691816 Se
   0.7401428730026381    0.7683103455716923    0.1249336464376135 Se
   0.3803950277715096    0.9285893938654854    0.1278265230947151 Se
   0.4995682845667082    0.0900853933040668    0.1071370087167539 Se
   0.6408723289404280    0.2700440158771233    0.1259838094467693 Se
   0.7451929388935506    0.4315303137978613    0.1118061076317849 Se
   0.8711126569528768    0.5740714514069105    0.1324986291580383 Se
   1.0069369056503656    0.7479326246812780    0.1106159451632476 Se
   0.6141401726399403    0.9329822774122734    0.1074360529080344 Se
   0.7377067496679374    0.1024711488646232    0.1130664368938069 Se
   0.8716046234657239    0.2472799029340473    0.1311260330264405 Se
  -0.0049032464870183    0.4222730710707810    0.1210093179162855 Se
   0.8827301794249290    0.9275104400118883    0.1196657908848457 Se
   0.0092507486337408    0.0961619888728124    0.1214226337426697 Se
   0.1359801368816803    0.6972399272404296    0.6639148586772284 Se
   0.2502485468168670    0.8753761151532087    0.6709649507845099 Se
   0.1314741978085915    0.3668143896539387    0.6748575371849759 Se
   0.2574188105589291    0.5297482084379268    0.6697019485017836 Se
   0.3888853028679217    0.7179984553732899    0.6786766155160767 Se
   0.5050546002810611    0.8725699284499459    0.6770861681970880 Se
   0.1241290784987103    0.0384229067524559    0.6694079162243236 Se
   0.2582290734782809    0.2055896700414046    0.6712723481654909 Se
   0.4054918399648345    0.3648255784960689    0.6681482552174776 Se
   0.5136598651407169    0.5434164683900068    0.6647668840266866 Se
   0.6353243692292847    0.6947012122907895    0.6696150753288977 Se
   0.7504919516945786    0.8703394860299050    0.6659831084470896 Se
   0.3678427689250478    0.0235506612355092    0.6673296426268216 Se
   0.5225727572535868    0.1990919197961920    0.6647067410608424 Se
   0.6208973030573585    0.3665011303628313    0.6658260684807189 Se
   0.7481388106632496    0.5362763325941441    0.6689334550493311 Se
   0.8747105325347828    0.6923619678014783    0.6908154707889458 Se
   0.9995633352650428    0.8675877003612772    0.6758164833626013 Se
   0.6190183466167255    0.0357352236363066    0.6607139163839697 Se
   0.7401725095395567    0.2028732450452898    0.6499048889114315 Se
   0.8849292104642819    0.3744577350201764    0.6571621401232871 Se
   0.9981941272594079    0.5541017382762596    0.6733573043147533 Se
   0.8620083128115132    0.0442024726720936    0.6637377710555762 Se
   0.0034228421948653    0.2053883862132546    0.6597182161716617 Se
   0.1441509301101110    0.5783373992062163    0.5548455901189384 Se
   0.2573945085986559    0.7696658380180179    0.5510098054084365 Se
   0.1466475119801255    0.2679142153711574    0.5662994838363608 Se
   0.2885205778626805    0.4151406420881583    0.5531549045235430 Se
   0.3910831484457978    0.6202125956166185    0.5383597349258924 Se
   0.5110156933168483    0.7560565125201261    0.5529043088325258 Se
   0.1396740348432023    0.9410744313142511    0.5466327340053374 Se
   0.2576837611989805    0.0882960526065258    0.5622565400212847 Se
   0.3787786510479746    0.2613706775884602    0.5466126863500561 Se
   0.5199226581223344    0.4344743164555332    0.5379153452338220 Se
   0.6294681895341888    0.5891042706444219    0.5501143434725353 Se
   0.7599104431272781    0.7379727019234937    0.5623835085047333 Se
   0.3819195312305973    0.9228546181310306    0.5649028305184254 Se
   0.5062596218721673    0.0815240304783610    0.5476017040106036 Se
   0.6216915622467742    0.2716511131086365    0.5366155889164131 Se
   0.7720317867269449    0.4362613904432977    0.5496331997457824 Se
   0.9013715611466661    0.5987060532575249    0.5549458283953452 Se
   0.0018804382674789    0.7739363192368768    0.5631419781295451 Se
   0.6468707640127325    0.9038278562673892    0.5400069839348449 Se
   0.7562118033198493    0.0953047192353536    0.5289239718401278 Se
   0.8969438625310421    0.2750956052849517    0.5451692551697974 Se
  -0.0239619699216416    0.4317284242323243    0.5404079370404723 Se
   0.8871400961184019    0.9061852344349119    0.5374676142658714 Se
  -0.0123923993663234    0.0912994430603411    0.5533988176627996 Se
   0.1408458635129598    0.6855709053111911    0.4331997591474695 Se
   0.2052288690454492    0.8577275128336574    0.4464746482196162 Se
   0.1369877791369093    0.3684826880494165    0.4546908456090974 Se
   0.2619881718210235    0.5512502173774676    0.4548111315407857 Se
   0.3847687878899420    0.7189459400598520    0.4431400548911485 Se
   0.4869324506861362    0.8608737060033899    0.4356589381953175 Se
   0.1285028386171426    0.0487288200905197    0.4482789371949394 Se
   0.2614132230048046    0.1945403665650516    0.4379042755868308 Se
   0.3790441944187644    0.3544902885993021    0.4447338434860173 Se
   0.5168635747816068    0.5477322838043950    0.4473634276037569 Se
   0.6278026161593691    0.6960159039611388    0.4599566963963371 Se
   0.7688843865062002    0.8507007125266179    0.4488369302669376 Se
   0.3560746928454496    0.0265780334787594    0.4520746265948787 Se
   0.4981362471028062    0.2018400787291773    0.4495853760641087 Se
   0.6400247239845589    0.3637579581913542    0.4411419719147719 Se
   0.7766254499493125    0.5487115024278275    0.4629605034126623 Se
   0.9241502034222258    0.6979879414666628    0.4457094960430439 Se
  -0.0044720348748541    0.8864013915059313    0.4487133030593691 Se
   0.6361364103408516    0.0249164898784155    0.4553657833369035 Se
   0.7385721365459575    0.2114536482331179    0.4463944575984907 Se
   0.8829139259538237    0.3765544415634060    0.4422345691276066 Se
  -0.0108780316028619    0.5290273947290112    0.4395648896993042 Se
   0.8929014388953584    0.0311813130269987    0.4484627073683520 Se
   0.0276051301319590    0.2154444174655610    0.4568459685518447 Se
