Bi12 Se9
1.0
   2.1363683600000001   -3.7002985399999999    0.0000000000000000
   2.1363683600000001    3.7002985399999999   -0.0000000000000000
  -0.0000000000000000    0.0000000000000000   40.4081074200000003
Bi Se
12 9
direct
   0.5521290400000000    0.3285228300000000    0.1798059400000000 Bi
   0.2187957100000000    0.6618561600000000    0.9221354400000000 Bi
   0.5521290400000000    0.3285228300000000    0.0401112400000000 Bi
   0.2187957100000000    0.6618561600000000    0.0837090000000000 Bi
   0.2187957100000000    0.6618561600000000    0.5058463200000000 Bi
   0.8854623700000001    0.9951894900000000    0.2700546800000000 Bi
   0.2187957100000000    0.6618561600000000    0.3661516200000000 Bi
   0.8854623700000001    0.9951894900000000    0.4097493800000000 Bi
   0.8854623700000001    0.9951894900000000    0.8318867000000000 Bi
   0.5521290400000000    0.3285228300000000    0.5960950600000000 Bi
   0.8854623700000001    0.9951894900000000    0.6921920000000000 Bi
   0.5521290400000000    0.3285228300000000    0.7357897600000000 Bi
   0.5521290400000000    0.3285228300000000    0.8770110700000000 Se
   0.8854623700000001    0.9951894900000000    0.9598887600000000 Se
   0.8854623700000001    0.9951894900000000    0.1420526200000000 Se
   0.2187957100000000    0.6618561600000000    0.2249303100000000 Se
   0.5521290400000000    0.3285228300000000    0.3078080000000000 Se
   0.5521290400000000    0.3285228300000000    0.4680930000000000 Se
   0.8854623700000001    0.9951894900000000    0.5509706900000000 Se
   0.2187957100000000    0.6618561600000000    0.6338483800000000 Se
   0.2187957100000000    0.6618561600000000    0.7941333800000000 Se
