Nb2 Se8
1.0
   5.9587300949999999    0.0000000000000000    0.0000000000000004
   0.0000000000000010    5.9587300949999999    0.0000000000000004
   0.0000000000000000    0.0000000000000000    6.4671530900000000
Nb Se
2 8
direct
   0.0000000000000000    0.0000000000000000    0.7500000000000000 Nb
   0.0000000000000000    0.0000000000000000    0.2500000000000000 Nb
   0.3370191700000000    0.1342638299999999    0.5000000000000000 Se
   0.6629808300000000    0.8657361700000001    0.5000000000000000 Se
   0.3370191700000000    0.8657361700000001    0.0000000000000000 Se
   0.6629808300000000    0.1342638299999999    0.0000000000000000 Se
   0.1342638299999999    0.6629808300000000    0.5000000000000000 Se
   0.8657361700000001    0.3370191700000000    0.5000000000000000 Se
   0.8657361700000001    0.6629808300000000    0.0000000000000000 Se
   0.1342638299999999    0.3370191700000000    0.0000000000000000 Se
