Bi12 Se9
1.0
   2.1363683600000001   -3.7002985399999999    0.0000000000000000
   2.1363683600000001    3.7002985399999999   -0.0000000000000000
  -0.0000000000000000    0.0000000000000000   40.2312907700000011
Bi Se
12 9
direct
   0.5521290400000000    0.3285228300000000    0.1783986800000000 Bi
   0.2187957100000000    0.6618561600000000    0.9239907300000000 Bi
   0.5521290400000000    0.3285228300000000    0.0380900300000000 Bi
   0.2187957100000000    0.6618561600000000    0.0818794000000000 Bi
   0.2187957100000000    0.6618561600000000    0.5058720100000000 Bi
   0.8854623700000001    0.9951894900000000    0.2690440700000000 Bi
   0.2187957100000000    0.6618561600000000    0.3655633600000000 Bi
   0.8854623700000001    0.9951894900000000    0.4093527300000000 Bi
   0.8854623700000001    0.9951894900000000    0.8333453400000000 Bi
   0.5521290400000000    0.3285228300000000    0.5965174000000000 Bi
   0.8854623700000001    0.9951894900000000    0.6930366900000000 Bi
   0.5521290400000000    0.3285228300000000    0.7368260500000000 Bi
   0.5521290400000000    0.3285228300000000    0.8786680300000000 Se
   0.8854623700000001    0.9951894900000000    0.9619099700000000 Se
   0.8854623700000001    0.9951894900000000    0.1404794400000000 Se
   0.2187957100000000    0.6618561600000000    0.2237213800000000 Se
   0.5521290400000000    0.3285228300000000    0.3069633100000000 Se
   0.5521290400000000    0.3285228300000000    0.4679527700000000 Se
   0.8854623700000001    0.9951894900000000    0.5511947100000000 Se
   0.2187957100000000    0.6618561600000000    0.6344366400000000 Se
   0.2187957100000000    0.6618561600000000    0.7954261000000000 Se
