Bi54 Se81
1.0
  12.5739999999999998    0.0000000000000000    0.0000000000000000
   0.0000000000000000   10.8900000000000006    0.0000000000000000
   0.0000000000000000    0.0000000000000000   29.9280000000000008
Bi Se
54 81
direct
   0.8586313000000000    0.2335417800000000    0.0788412200000000 Bi
   0.1875592500000000    0.2871331500000000    0.6858573900000000 Bi
   0.0064991300000000    0.7024903600000000    0.6388522500000000 Bi
   0.8267170400000000    0.9205326000000000    0.0726841100000000 Bi
   0.5806958800000001    0.0931873300000000    0.0308991600000000 Bi
   0.7544719300000000    0.1368677700000000    0.8320235200000000 Bi
   0.7215078700000001    0.2322038600000000    0.6073212400000000 Bi
   0.0302672200000000    0.1934609700000000    0.4592318200000000 Bi
   0.7679704200000000    0.1795877000000000    0.3770729800000000 Bi
   0.6326133300000000    0.4502543600000000    0.0595074800000000 Bi
   0.3782519500000000    0.9331524300000000    0.0473489700000000 Bi
   0.2617472600000000    0.6744527100000000    0.4791883900000000 Bi
   0.9600381700000000    0.3321432500000000    0.6230563400000000 Bi
   0.9766852200000000    0.0782819100000000    0.1734011600000000 Bi
   0.8108700500000000    0.8828879700000000    0.4138248500000000 Bi
   0.4717019200000000    0.2405904500000000    0.5134038399999999 Bi
   0.0313050700000000    0.9445169900000000    0.8854233500000001 Bi
   0.6724129200000000    0.6625087200000001    0.2857982500000000 Bi
   0.7379704200000000    0.5076933000000000    0.5704083100000000 Bi
   0.8292969600000000    0.5858172600000000    0.1263482400000000 Bi
   0.0136774300000000    0.6873792500000000    0.4138161600000000 Bi
   0.5909678700000000    0.9819494900000000    0.5104230199999999 Bi
   0.2560561500000000    0.9287842100000000    0.7007631600000001 Bi
   0.2225171000000000    0.8504784200000000    0.3856525700000000 Bi
   0.5664299300000000    0.0431285600000000    0.2628715600000000 Bi
   0.3945840600000000    0.3169247000000000    0.0146287800000000 Bi
   0.3726475300000000    0.5908797099999999    0.0698600000000000 Bi
   0.3343757000000000    0.3859880600000000    0.1545419000000000 Bi
   0.9895053300000000    0.0453911800000000    0.3657381000000000 Bi
   0.4118832500000000    0.8152341600000000    0.2683881300000000 Bi
   0.4041148400000000    0.4409522500000000    0.2636631200000000 Bi
   0.6450087500000000    0.3781028500000000    0.3069717300000000 Bi
   0.0018084900000000    0.0375353500000000    0.6381024500000000 Bi
   0.3475878800000000    0.1139155200000000    0.1990570700000000 Bi
   0.1044814700000000    0.3101708000000000    0.2145505900000000 Bi
   0.8795872400000000    0.5421147800000000    0.0156706100000000 Bi
   0.5241975500000000    0.9129990800000000    0.7758082700000000 Bi
   0.8966836300000000    0.1834040400000000    0.2760949600000000 Bi
   0.7622848700000000    0.8106905400000000    0.6002790000000000 Bi
   0.2464951500000000    0.0979476600000000    0.9534930500000000 Bi
   0.5117886100000000    0.6824325100000000    0.5593420900000000 Bi
   0.4534555400000000    0.1920505100000000    0.7253812500000000 Bi
   0.4878161300000000    0.3870881500000000    0.6098463000000000 Bi
   0.2259289000000000    0.3759274600000000    0.4398128800000000 Bi
   0.2844727200000000    0.8264977000000000    0.1504276900000000 Bi
   0.8675417500000000    0.5189614299999999    0.2297617600000000 Bi
   0.3163726700000000    0.6022442600000000    0.3448402800000000 Bi
   0.2601550800000000    0.0569109300000000    0.4614093800000000 Bi
   0.7097606200000000    0.3192809900000000    0.4850150400000000 Bi
   0.8142317500000000    0.8633452700000001    0.1952075000000000 Bi
   0.0319277900000000    0.7989752100000000    0.1355486500000000 Bi
   0.2532583100000000    0.6439412300000000    0.6289975900000000 Bi
   0.7714498200000000    0.5816464600000000    0.3788799800000000 Bi
   0.7208978800000000    0.7068337900000000    0.4909536200000000 Bi
   0.0125274400000000    0.3982029400000000    0.2965313400000000 Se
   0.6803881000000001    0.3097557400000000    0.9116061900000000 Se
   0.9987569600000000    0.7314490400000000    0.2508363400000000 Se
   0.4143176400000000    0.2074738300000000    0.4179955200000000 Se
   0.4773461100000000    0.7896602400000000    0.1114197400000000 Se
   0.6045586100000000    0.3018402200000000    0.9771588500000000 Se
   0.5225695900000000    0.6357199300000000    0.2199699300000000 Se
   0.3102195000000000    0.7984554600000000    0.5574241500000000 Se
   0.0127493200000000    0.8129513300000000    0.0368357400000000 Se
   0.7402871000000000    0.3104169000000000    0.2279206800000000 Se
   0.9730077900000000    0.8623691500000000    0.5629063100000000 Se
   0.1129680300000000    0.4720404000000000    0.3570455800000000 Se
   0.4097526600000000    0.5447731900000000    0.4295295400000000 Se
   0.9020820700000000    0.7009605100000000    0.8970355500000000 Se
   0.1437100400000000    0.5521772300000000    0.9256098000000000 Se
   0.2241657400000000    0.5267970600000000    0.2120121600000000 Se
   0.0748242400000000    0.5561239700000000    0.4941045200000000 Se
   0.1059607100000000    0.5967961400000000    0.7829804900000000 Se
   0.7811165900000000    0.1130863200000000    0.5276436799999999 Se
   0.6227851100000000    0.3660863200000000    0.6941292400000000 Se
   0.5279918900000000    0.5322369100000000    0.8272036200000000 Se
   0.8695824700000000    0.3561662100000000    0.4248850600000000 Se
   0.3152067800000000    0.0932112000000000    0.5540350200000000 Se
   0.9698926400000000    0.5093223099999999    0.5587179200000000 Se
   0.5590901900000000    0.3318108400000000    0.8111728100000000 Se
   0.2749920500000000    0.2207584900000000    0.2836798300000000 Se
   0.2130626700000000    0.3892901700000000    0.9645064800000001 Se
   0.7157778000000000    0.0323507800000000    0.7450407600000000 Se
   0.9114848100000000    0.2864554600000000    0.9825574700000000 Se
   0.4697009700000000    0.9831138699999999    0.6721645300000000 Se
   0.1095848600000000    0.3449834700000000    0.8170272000000000 Se
   0.4892365200000000    0.5139155200000000    0.9038459000000000 Se
   0.6500644200000000    0.2290000000000000    0.1134442700000000 Se
   0.0719413100000000    0.0643498600000000    0.7326958000000000 Se
   0.2033521600000000    0.1078879700000000    0.3453077400000000 Se
   0.3399737600000000    0.5512910900000000    0.8003481700000000 Se
   0.5394663600000000    0.1878668500000000    0.3558654100000000 Se
   0.5535565500000000    0.1227888000000000    0.1711728100000000 Se
   0.0388054700000000    0.8085270900000000    0.3219994700000000 Se
   0.4724240500000000    0.6241202900000000    0.6570338800000000 Se
   0.9260863700000000    0.6147024800000001    0.7825748500000000 Se
   0.7477135400000000    0.6227190100000000    0.8718638100000000 Se
   0.1466995400000000    0.6955289300000000    0.7150424399999999 Se
   0.2746317800000000    0.3813847600000000    0.8539949200000000 Se
   0.3413869900000000    0.4213673100000000    0.7384563000000000 Se
   0.5952362000000000    0.5349697000000000    0.4371094000000000 Se
   0.5598823000000001    0.9193489400000000    0.6063368800000000 Se
   0.4632813700000000    0.0253232300000000    0.9279173300000000 Se
   0.3318045200000000    0.0316363600000000    0.7890119600000000 Se
   0.0164458400000000    0.2063278200000000    0.9270088200000000 Se
   0.1412390600000000    0.7531202900000000    0.8298239100000000 Se
   0.6972816900000000    0.5348567500000000    0.7314865699999999 Se
   0.7485183700000000    0.9071937600000000    0.2817214600000000 Se
   0.5588818200000000    0.0140918300000000    0.8649729400000000 Se
   0.2560983000000000    0.4102506900000000    0.5971214200000000 Se
   0.1882352500000000    0.4550569300000000    0.0890123000000000 Se
   0.5831215199999999    0.8862424200000000    0.4187864200000000 Se
   0.9686177800000000    0.3720156100000000    0.7143808500000000 Se
   0.8083084100000000    0.9886712600000001    0.9117906300000000 Se
   0.2297224400000000    0.0605124000000000    0.8536059900000000 Se
   0.9739605500000000    0.0471193800000000    0.7971825700000000 Se
   0.2318124700000000    0.9175527999999999    0.2311430800000000 Se
   0.7172148900000000    0.7593131300000000    0.8162967800000001 Se
   0.7851701900000000    0.0463599600000000    0.6757955800000000 Se
   0.6811794200000000    0.7938328700000000    0.1271194200000000 Se
   0.3625799300000000    0.7282966000000000    0.9855814000000001 Se
   0.6858716400000000    0.6410183699999999    0.9940771200000000 Se
   0.0748838900000000    0.1433893500000000    0.0926560400000000 Se
   0.2243844400000000    0.0845592300000000    0.6217535400000000 Se
   0.8543836500000001    0.3417089100000000    0.7730747100000001 Se
   0.3359782100000000    0.6901873300000000    0.9108630700000000 Se
   0.0982885300000000    0.8834380200000000    0.9736400700000000 Se
   0.7450739600000000    0.9783122100000000    0.9822340300000000 Se
   0.2290718900000000    0.1224646500000000    0.0501259700000000 Se
   0.7944250000000000    0.6264591400000000    0.6672567500000000 Se
   0.4481064100000000    0.8359972500000000    0.3687743900000000 Se
   0.6157968800000000    0.7323305800000000    0.9296264400000001 Se
   0.0020303800000000    0.4608549100000000    0.0840590800000000 Se
   0.9937068600000000    0.4111368200000000    0.8740139700000000 Se
   0.0481732100000000    0.9649577600000000    0.5005914200000000 Se
   0.5348496900000000    0.6883388400000000    0.7262343000000000 Se
