Bi144 Se216                             
    1.000000000000000     
    16.8710670000000000    0.0000000000000000    0.0000000000000000
     0.0000000000000000   22.0584039999999995    0.0000000000000000
     0.0000000000000000    0.0000000000000000   29.9286870000000000
  Bi              Se            
   144   216
Direct
  0.1212655963016473  0.5909493724024628  0.7225141550646725
  0.2199688970472380  0.7481683624980278  0.7234697599664131
  0.1072623326076538  0.2580236539325327  0.7126106133556718
  0.2358570444892436  0.4341814575524126  0.7331360710879196
  0.3811383121174288  0.5864340865277455  0.7359594492067103
  0.5156561822675485  0.7480867609460802  0.7302325023479952
  0.1137722943071680  0.9140597841983507  0.7335938258835100
  0.2516835479344621  0.0933548954856391  0.7097772114092393
  0.3440932337000362  0.2782449718483733  0.7097671875815976
  0.4986969703813031  0.4302115420499177  0.7531402897828414
  0.6057411780772384  0.6103886754454209  0.7316391794935768
  0.7566444967588595  0.7711210656945084  0.7225074725129090
  0.3506352028594293  0.9443294265532529  0.7210038983668099
  0.5045804156903628  0.0823994337940306  0.7158249207524534
  0.5843862750352429  0.2559138004725980  0.7212544940578240
  0.7402495645355458  0.4406089397945578  0.7278668790247949
  0.8825167963591127  0.5938371606576780  0.7273957591256845
  0.9815324662038236  0.7424018528267027  0.7399957104700263
  0.6097302559464666  0.9211001847640503  0.7183709729731902
  0.7067543505102520  0.0917736387455790  0.7246158175933317
  0.8778638600629094  0.2663497322834445  0.7227614094798085
  0.9947325797473283  0.4205145576261984  0.7256683194956040
  0.8648415657409245  0.9123325513486833  0.7331527774673177
  0.9638750175077817  0.1118009263045536  0.7537149892342399
  0.1142174350916889  0.6147588918944464  0.9758062557171314
  0.2380394790679219  0.7633870519372152  0.9484946666721470
  0.1094447671863321  0.2694709916456333  0.9359481757418919
  0.2332757021236418  0.4281569963085303  0.9439070948885941
  0.3442141507706680  0.6032168057126910  0.9419992263609842
  0.4827922264786224  0.7688180885616234  0.9442479050283765
  0.0853804919392473  0.9407298914282265  0.9202508616565765
  0.2393221483857531  0.0836665245590780  0.9542683913931782
  0.3845026517884165  0.2540700587404245  0.9513314098944576
  0.4597515972167017  0.4275916788902734  0.9341739582494881
  0.6128124557859920  0.5951201183911579  0.9485548096379901
  0.7253957322319948  0.7692532968386985  0.9420426629474292
  0.3463894725804835  0.9288205982626820  0.9556550208834764
  0.5130878799781868  0.0878594843035785  0.9317214617533978
  0.6249752905373427  0.2597767272736533  0.9519662523117063
  0.7366339070314893  0.4476130730038292  0.9561428471619919
  0.8543205951348511  0.6146092890491985  0.9673595102919137
  0.9881591958588061  0.7815343304075881  0.9448259457556532
  0.5976148396541845  0.9270888319934656  0.9569213644420813
  0.7894402885128713  0.0787550178154319  0.9453104307582905
  0.8564307165634517  0.2651057619581181  0.9538941684945925
  0.9840574991492801  0.4278713908766960  0.9498178119207168
  0.8507582833972478  0.9078353991521766  0.9133110316533433
  0.0105821996913420  0.1140934765724637  0.9395734600719337
  0.1094501017629739  0.7052595464295592  0.0781908675111609
  0.2459909619231553  0.8666356822551649  0.0786990755725441
  0.1394837682761860  0.3874455286973628  0.0707849295226382
  0.2656168694013274  0.5359544598058861  0.0728277855958055
  0.3767882612285263  0.7245220461099535  0.0601463071199859
  0.4602702366127787  0.9091455574029723  0.0696265091749595
  0.1080251770679368  0.0527087091160325  0.0702967691165313
  0.2525127782374383  0.2125788429661526  0.0689321920470505
  0.3777087720652190  0.3544182072284130  0.0650603215570413
  0.4552071306456185  0.5535713281885677  0.0643279138840924
  0.6114195385508197  0.7274869024975672  0.0479399580743376
  0.7643262871281351  0.8745011651794954  0.0701878435228380
  0.3453190008669864  0.0478819773180348  0.0566316190215730
  0.4911011259690952  0.1901220958687659  0.0595074551716905
  0.6281404726802435  0.3757937337624213  0.0794304808627260
  0.6924102666417014  0.5484077633177833  0.0829037371402208
  0.8409841535215321  0.7048878060262211  0.0750006173007165
  0.0053182172769510  0.8767089405017714  0.0686184462418922
  0.6145669387715671  0.0479141645968610  0.0897249518497105
  0.7522405073727683  0.1997012113841024  0.0632593738575977
  0.8583215276188554  0.3579760348935466  0.0699850280769070
  0.9533955380533996  0.5548225519851755  0.0918162564231437
  0.8690143901390499  0.0259888702736575  0.0759034300435530
  0.9957747782046056  0.2191523013178980  0.0598412486321251
  0.1182622296503268  0.7025984291519904  0.2872434731266367
  0.2183258474404752  0.8785132414838372  0.2824921788249526
  0.0968474608037511  0.3694931872677643  0.2852818100573558
  0.2470051242165070  0.5357595227651117  0.2893354459552455
  0.3709048159194666  0.7103460431679451  0.2852059630948744
  0.4895635824337603  0.8999563159691846  0.2907675167975157
  0.1051474693331471  0.0302436658608656  0.2838012907148268
  0.2135656268806230  0.2140576444243223  0.2482765114286494
  0.3550065920549059  0.3893332445992002  0.2665573000245516
  0.4751525199917737  0.5517760940456071  0.2825456392390322
  0.5982549888516218  0.7295405415550462  0.2977437667078391
  0.7174768495673689  0.8844928218741472  0.2905991164931478
  0.3449295767718752  0.0569773769670761  0.2775968755328293
  0.4812671302887921  0.2187646939461274  0.2897975444094811
  0.6105660062875700  0.3669127648582347  0.2794275605876066
  0.7184074368266096  0.5381169009326356  0.2776439875227368
  0.8552630370088607  0.7224684070524745  0.2834120320747786
  0.0018631305299195  0.8760289275688322  0.2680003970772233
  0.6042889877682285  0.0504850668253241  0.2763963551090640
  0.7279622563291355  0.2067379852141613  0.2732064390262110
  0.8569226830762986  0.3840350371676919  0.2772527241171687
  0.9906960834190244  0.5337466844836101  0.2761771674113191
  0.8659736814512087  0.0495602492365279  0.2874081980275278
  0.9925394760153594  0.2017906644560483  0.2760251393587723
  0.9781361190729640  0.6626182021147144  0.4042509449211735
  0.1112970507437367  0.8205081383041133  0.3898333394979900
  0.9856282356059651  0.3141424012362819  0.3890548222178936
  0.0861059943630096  0.4787744389848001  0.3853059106802803
  0.2947205413860274  0.6786121062974431  0.4018920041497296
  0.3455649841234134  0.8326985034819359  0.4049425890283800
  0.9823622892375425  0.9751419912338193  0.3829837239435179
  0.1177038772947796  0.1514833076772035  0.3904280866046648
  0.2220499746696518  0.3175193454612568  0.3953497859762436
  0.3513921200123278  0.4835027955785023  0.4085277780478620
  0.4895286113201962  0.6911424779417388  0.4395882786304668
  0.6188523820099832  0.8261703793257240  0.4007827005574924
  0.2270792949847191  0.9693357688072055  0.3942772364186879
  0.3344477263945436  0.1365089695519188  0.4021960602548305
  0.4893436793298278  0.3303212689367712  0.3845106870207857
  0.6107616074312290  0.4962553047808882  0.3870400328621173
  0.7533726230830595  0.6537508334691822  0.4032819749159060
  0.8486303800465009  0.8218228299744652  0.4038600156431826
  0.4951903753331095  0.9929639515170692  0.3925698444438979
  0.6157701821704578  0.1576247311455532  0.3975349804019146
  0.7217622928057850  0.3099716552475869  0.3854997046813295
  0.8597737179278582  0.5090168808223865  0.3931712741023361
  0.7536512065300940  0.9797445001007361  0.4059382892406873
  0.8544332139751418  0.1328826872515378  0.4089888741193377
  0.9809700240061900  0.6375665256652283  0.6137188711285617
  0.1101868660707694  0.8014859098600269  0.6162415344181298
  0.9674195473232388  0.3377946110697749  0.6061041033975201
  0.1170684699432485  0.4850894924220270  0.6227703874880959
  0.2355031842384392  0.6515929257619888  0.6156367634838134
  0.3762269452192939  0.8106932849720252  0.6148448811001970
  0.9848103264600852  0.9764668377639651  0.6274715626515786
  0.1197565038417565  0.1448033139659586  0.6090076721374373
  0.2442086205928788  0.3284598468683413  0.6075341694742562
  0.3779316388228438  0.4951264833122124  0.6165021539367928
  0.5080976798918542  0.6581029162399972  0.6248753912926404
  0.6208380299835241  0.8301779222105097  0.6142267450623535
  0.2221080622820111  0.9767071090002730  0.6054759435320349
  0.3369419373416065  0.1543982964497346  0.6015298967174871
  0.4804378999858159  0.3266927199266121  0.6089642355509923
  0.6207609749875331  0.4770472061351327  0.6306691636689550
  0.7383113350210735  0.6446567938460106  0.6004139105734936
  0.8770518189513439  0.8012592388823805  0.6241002152884292
  0.4644922576621866  0.9632655200258355  0.6115670894616940
  0.6014498075314378  0.1442248496310086  0.6113432239777197
  0.7438889312691401  0.3273414522646334  0.6257140515385800
  0.8615815466798864  0.4814582233601286  0.5949241943022727
  0.7330538133717326  0.9812677290705167  0.6168663530077367
  0.8282167334170367  0.1457090911926358  0.6215240915847744
  0.9654161174275444  0.6700212762446469  0.0183072849136323
  0.1245552518996007  0.8355590912198352  0.0079371006152087
  0.9750717011555921  0.3273718261756358  0.9957035535838941
  0.1074727520197740  0.4924426989368769  0.0188483377169177
  0.2417078896076958  0.6575543724740953  0.0090994970811806
  0.3642111076910552  0.8244340796369514  0.0091167714774798
  0.9926727218853415  0.0013586205058189  0.9942768287830361
  0.1003279756994644  0.1617116088725155  0.9997770032477504
  0.2668894622966036  0.3115402184129010  0.0095703496782207
  0.3556728214048377  0.4545206443766290  0.0097012608672102
  0.4696371604712368  0.6647715764023516  0.9969991667192062
  0.5919809339859796  0.8449750036312693  0.0209146161340144
  0.2192742166218622  0.9869973820408759  0.0311645145007517
  0.3530665843482197  0.1466067082641160  0.9993021077068960
  0.5158470415653014  0.3286896912396742  0.0077655595115118
  0.5808986473706739  0.5087222085514469  0.0108519962803584
  0.7165758988450435  0.6547889865468051  0.9972813374672924
  0.8781187342804131  0.8105255484485667  0.0294339340713492
  0.4964179206922736  0.9808823884085172  0.0072013516663816
  0.6400958516731663  0.1369632181911271  0.9951570210881613
  0.7415832086968805  0.3130580072792242  0.0153040125014527
  0.8576754511140265  0.4999047075209972  0.0128676877806271
  0.7572075909603129  0.9761177644583867  0.0156406794591391
  0.8748112967603063  0.1596520763696248  0.0053236882727248
  0.1208773576680144  0.7078118616378575  0.8975235031192668
  0.2149828460760688  0.8755982527112991  0.8751803913081773
  0.1355847854791890  0.3636355558634250  0.8773154665956469
  0.1854458879216097  0.5401524063118970  0.9165286803260031
  0.3631969453977035  0.7070185132160987  0.8714381623223204
  0.4918793814285749  0.8625556046575298  0.8869750951653828
  0.1221991472145803  0.0364250740896779  0.8748529462719148
  0.2781703137092606  0.1977668012608689  0.8860228315395204
  0.3842418502635283  0.3639062010107352  0.8715551069781284
  0.5093785710174714  0.5323821251981755  0.8822505310707385
  0.6233274990846738  0.7054907508267618  0.8835770175951936
  0.7057348536402586  0.8621611971564249  0.8735331422992232
  0.3552946591937527  0.0144632404048792  0.8817159269299069
  0.5140558092739482  0.2184487146032836  0.8957125315921814
  0.6458394125279696  0.3718016045041139  0.8963573978370647
  0.7621687472404659  0.5569668594337074  0.8814553074112439
  0.8536330274783452  0.7114839314757333  0.9038886336711016
  0.9788592505737768  0.8483524011981984  0.8685947365482463
  0.6165288775155702  0.0067003034308399  0.8601981102612370
  0.7386847553862452  0.1641320015718293  0.8821235625872959
  0.8394549082165312  0.3925261319903299  0.8769312198694195
  0.9703950556298508  0.5267289510156772  0.9003702701692191
  0.8662404102834742  0.0132087072120015  0.8717555835309412
  0.9938909020988405  0.2292319063518846  0.8855617354680447
  0.9884614885353713  0.6263689793694951  0.7856041262351425
  0.1077495572745946  0.7961092742702505  0.7960088593261716
  0.9836188784028863  0.3324760032502780  0.7903955158473863
  0.0984786557957449  0.4811816847673995  0.7813774122466484
  0.1976899267841219  0.6491584794620664  0.7954141122194898
  0.3377148582244374  0.8011731039108696  0.7802614261026548
  0.9912748849850459  0.9527525200825977  0.7800074891357553
  0.1151871425796571  0.1780845069298778  0.7877559079020102
  0.2127470657309374  0.2990841948492715  0.7904823890202763
  0.3603820671211864  0.4839516041142389  0.7903721269162247
  0.5117791305078683  0.6385865450646406  0.8027649191559902
  0.6146677029970888  0.8212425522716842  0.7741067959312744
  0.2141654703878544  0.9934671610874446  0.7774380479838641
  0.3271114980457384  0.1555860523725983  0.7804418550001913
  0.4699999116831179  0.3000126391737155  0.7805587996559922
  0.6374996910391033  0.5032866385074826  0.7898442053271495
  0.7503734055469025  0.6748629683271758  0.7833086697054270
  0.8693344647377685  0.8096233979575302  0.7882236865252423
  0.4833642116411454  0.9734294466635021  0.7723826975770791
  0.5995767783981876  0.1466443356464069  0.7751492740059049
  0.7450862473606463  0.3210082651491888  0.7833988841541881
  0.8702117062305561  0.4767616007032984  0.7779860172282227
  0.7274228713572199  0.9576622134584198  0.7813673884190138
  0.8430527837984414  0.1747556169521616  0.7781063031599089
  0.0941374958679262  0.5930710127532350  0.3342445326786319
  0.2396333320233950  0.7762710303066385  0.3540115207860595
  0.1069475925855770  0.2580408809268349  0.3320580017426096
  0.2290833176111491  0.4214366551632622  0.3294461263870332
  0.3848499920011008  0.6126417849632304  0.3386784057716952
  0.4746552189022779  0.8001440176723591  0.3313897465665647
  0.1026147308880923  0.9268258936593980  0.3385614611158871
  0.2156615227714980  0.0972037686860787  0.3286666067241768
  0.3464783821912363  0.2484662988310475  0.3483346930655529
  0.4900851854835295  0.4330394891670295  0.3250236136319629
  0.5905577874831494  0.5991185944368382  0.3447595278737055
  0.7244177265136784  0.7771459802803520  0.3455012911191204
  0.3808532086322671  0.9581518227701338  0.3480607084433771
  0.5244878702692617  0.0968841626075942  0.3410874656813405
  0.6066480561069412  0.2548974078088335  0.3385982151505686
  0.7364383058878232  0.4202738330479363  0.3340220037050088
  0.8741770748702464  0.6116670997593445  0.3442449713881501
  0.9882540327769433  0.7790046822970496  0.3374321098683666
  0.6166296417410919  0.9448099690258616  0.3370144503833430
  0.7431598724609429  0.0992895950223769  0.3425977223792032
  0.8451925417639572  0.2689020474917427  0.3312831598659827
  0.9708396036836291  0.4399719943473670  0.3313810592492743
  0.8653453868685332  0.9372482252115759  0.3313118948385565
  0.0006835963605596  0.0983149098184981  0.3335037718159839
  0.9664652508344602  0.6472907106062635  0.2299816894740516
  0.1462047421185630  0.8049313087202492  0.2221243451141035
  0.9844131375923055  0.3141097606155014  0.2283377817409757
  0.1474755568216253  0.4835707968717955  0.2348188545658587
  0.2497204237289807  0.6616843176868130  0.2350460613257113
  0.3797270202293674  0.8208390779314740  0.2317833054286709
  0.9739455127526924  0.0085679816182562  0.2280283795944698
  0.0982320798085894  0.1605868674814346  0.2003783193028141
  0.2206813593947530  0.3266410389437056  0.2129692492022812
  0.3607145890654095  0.5180610528304754  0.2235697810598936
  0.5031098507284710  0.6918814253288659  0.2219626273614992
  0.6236001552243238  0.8301461882736376  0.2333643971751940
  0.2430948795354766  0.9895305662186615  0.2341198596517131
  0.3678149105803428  0.1746450015150671  0.2217544658741630
  0.4687142787115945  0.3231199319769473  0.2158858489181270
  0.6138852984224386  0.5197792188410375  0.2164501904142995
  0.7346423317505639  0.6756336496511750  0.2318170523150584
  0.8544450685899108  0.8386327496767194  0.2284868026452358
  0.4848211437960614  0.9872745099781497  0.2224554655538356
  0.6087641048429262  0.1481788981650709  0.2202545671315264
  0.7281222936284948  0.3161225988970031  0.2229225759218920
  0.8652624045651649  0.4957022275954301  0.2233649608484356
  0.7208613420834595  0.9843957885620398  0.2246286313863379
  0.8744319490877501  0.1530301104286593  0.2145396488659870
  0.1828627673637939  0.6092507871376398  0.1434780617004705
  0.2421062046638767  0.7594565771848210  0.1231804789832580
  0.1100048977340933  0.2509977603094029  0.1249820949378773
  0.2695923144635728  0.4367020388238387  0.1356304070405727
  0.3852998746315208  0.6204256663356063  0.1354853956673736
  0.5049787307465508  0.8023155256382069  0.1368586600541448
  0.1211393446543738  0.9279819156453897  0.1244027177002422
  0.2409948345294310  0.0899675243956892  0.1202632110122295
  0.3944812737688750  0.2558095318228837  0.1279534915781610
  0.4945034004073392  0.4106942641906457  0.1294694284450202
  0.5859824989136726  0.6350822117502233  0.1205792957104990
  0.7121541275368060  0.7607894025333835  0.1166158742613703
  0.3668594286300930  0.9490804502447219  0.1265037119737329
  0.4798588020544301  0.0789377146234145  0.1371446732694963
  0.6160843294617919  0.2501219036517810  0.1325667911859938
  0.7608765942308224  0.4074637494172322  0.1339741365867440
  0.8274758199940777  0.6110958888956759  0.1354205749153010
  0.0117202427090106  0.7461101900209997  0.1452061695857196
  0.6283597830534404  0.9205924417741187  0.1366374675908801
  0.7651561101618540  0.1126736095684890  0.1165851345232767
  0.8635553400386584  0.2566677081442492  0.1184382061264486
  0.0269830592220401  0.4069346993554035  0.1376528813308795
  0.9002868638954453  0.9200166974908939  0.1312259371752589
  0.9844427741292208  0.1011691507690244  0.1209110844054067
  0.0879256777298068  0.6996426396034821  0.6703735449537120
  0.2205165802494875  0.8652529892915197  0.6691138839468636
  0.1298269990866601  0.3767208180609956  0.6650542337523859
  0.2517321518550091  0.5428089901699167  0.6789840128970610
  0.3604555657327424  0.6952270889589300  0.6730866609684583
  0.4748632673914486  0.8725381945130763  0.6820345977757043
  0.0751683340478735  0.0342378804921708  0.6840293394762043
  0.2307886039454417  0.2252438571711721  0.6558156059435518
  0.3770875902514064  0.3788338449146167  0.6723849930336101
  0.5033107864487789  0.5478320190345585  0.6737549161445031
  0.6265756635309430  0.7055179513440777  0.6659597195159250
  0.7442208604826206  0.8665087465076837  0.6662570930692695
  0.3796849363469406  0.0359715961317946  0.6512681294705658
  0.4746931536695342  0.2119754448236577  0.6676236749042843
  0.6232504440886899  0.3756980786098580  0.6764880798145256
  0.7186326745071909  0.5525105080131851  0.6676537463872023
  0.8691151543645717  0.6924254356752186  0.6652045911669973
  0.9834706957182959  0.8684173161394639  0.6702733066773021
  0.6035540016526539  0.0341156141668293  0.6612284728695244
  0.7351520801855642  0.2139864697373426  0.6776809153037675
  0.8602479025185517  0.3744513882327993  0.6813897315308211
  0.9896588046268775  0.5317973140758525  0.6724818900341347
  0.8497328592198699  0.0330103211456247  0.6921820526239557
  0.9651849524395786  0.2212879952692859  0.6655587664102995
  0.0956205081753296  0.5874722396053684  0.5559782826423358
  0.2128828010700232  0.7458744522042480  0.5681572332257687
  0.1293302907279070  0.2618335397248117  0.5437993320589030
  0.2670174921360911  0.4320815776154987  0.5532451189723062
  0.3835773991058176  0.6261287081331872  0.5691228619551509
  0.5075138401145551  0.7898984894827379  0.5612307683260553
  0.0794176207112471  0.9239154383064161  0.5374442253347098
  0.2358078478379610  0.0856426421421972  0.5493291436406835
  0.3512480864429008  0.2585717443564803  0.5589252879686981
  0.4957072365369655  0.4392974215178924  0.5651567674853197
  0.6121189608221016  0.5920101925778525  0.5559482111594107
  0.7581678147564688  0.7773771846775475  0.5499706686096886
  0.3389400326606520  0.8898059895901795  0.5594431857301316
  0.4935977078391076  0.0812026110320616  0.5407921837666976
  0.6071281680050262  0.2921788901862499  0.5483534910836525
  0.7188519848803878  0.4305678688267776  0.5636331456839372
  0.8771822197137880  0.6043410937618177  0.5511467977195252
  0.9861142748114275  0.7694119665230517  0.5595634716618179
  0.5962515589559345  0.9198444275478863  0.5524098000022519
  0.7325855560884236  0.0736118533326362  0.5658383877648916
  0.8562054788828704  0.2746413566457448  0.5653605853140178
  0.9995870444945751  0.4229585241071874  0.5522995378982074
  0.8768562178076849  0.9402085481796405  0.5683710748821014
  0.9629622121706944  0.1069129933425828  0.5596035669723847
  0.1119881747846776  0.7198118231944619  0.4485529218171180
  0.2069258571494004  0.8660010035177521  0.4568426272759609
  0.0893144458498085  0.3746009910780472  0.4452517412474535
  0.2567484320938291  0.5730604988466084  0.4669065502272147
  0.3440339606261986  0.7377641646240605  0.4744344447853663
  0.4839492368799228  0.8823077136496380  0.4566621983784316
  0.1160477876117767  0.0221443944901907  0.4404770580146078
  0.2260532780766056  0.2072366613649805  0.4595490607389507
  0.3513826363205155  0.3656561009581623  0.4660879376365585
  0.4587131329630765  0.5085952728039587  0.4693423403438999
  0.6308670340767435  0.7335435510202828  0.4756439866540063
  0.7346838229022481  0.8659874032590906  0.4540225904330484
  0.3707145493524493  0.0330852585708357  0.4583462014220672
  0.4589537816428546  0.2422686609602422  0.4571199531740220
  0.6071400226197881  0.3843510165105357  0.4338011888059086
  0.7267886494671600  0.5134278980473823  0.4622187401672520
  0.8731457233854840  0.7173683100554342  0.4625862805140741
  0.9934819178893690  0.8744104967884354  0.4445534145884835
  0.6265638089161740  0.0380198857542027  0.4558268794083773
  0.7180043799245155  0.2055248421417986  0.4589442898046272
  0.8407944796852505  0.3561980277448882  0.4594755526695877
  0.9692407717899556  0.5260670717609486  0.4619146840621511
  0.8752380628919312  0.0268695776902064  0.4583862967326269
  0.9631637406217379  0.1962322387422049  0.4590545519086788
 
  0.00000000E+00  0.00000000E+00  0.00000000E+00
  0.00000000E+00  0.00000000E+00  0.00000000E+00
  0.00000000E+00  0.00000000E+00  0.00000000E+00
  0.00000000E+00  0.00000000E+00  0.00000000E+00
  0.00000000E+00  0.00000000E+00  0.00000000E+00
  0.00000000E+00  0.00000000E+00  0.00000000E+00
  0.00000000E+00  0.00000000E+00  0.00000000E+00
  0.00000000E+00  0.00000000E+00  0.00000000E+00
  0.00000000E+00  0.00000000E+00  0.00000000E+00
  0.00000000E+00  0.00000000E+00  0.00000000E+00
  0.00000000E+00  0.00000000E+00  0.00000000E+00
  0.00000000E+00  0.00000000E+00  0.00000000E+00
  0.00000000E+00  0.00000000E+00  0.00000000E+00
  0.00000000E+00  0.00000000E+00  0.00000000E+00
  0.00000000E+00  0.00000000E+00  0.00000000E+00
  0.00000000E+00  0.00000000E+00  0.00000000E+00
  0.00000000E+00  0.00000000E+00  0.00000000E+00
  0.00000000E+00  0.00000000E+00  0.00000000E+00
  0.00000000E+00  0.00000000E+00  0.00000000E+00
  0.00000000E+00  0.00000000E+00  0.00000000E+00
  0.00000000E+00  0.00000000E+00  0.00000000E+00
  0.00000000E+00  0.00000000E+00  0.00000000E+00
  0.00000000E+00  0.00000000E+00  0.00000000E+00
  0.00000000E+00  0.00000000E+00  0.00000000E+00
  0.00000000E+00  0.00000000E+00  0.00000000E+00
  0.00000000E+00  0.00000000E+00  0.00000000E+00
  0.00000000E+00  0.00000000E+00  0.00000000E+00
  0.00000000E+00  0.00000000E+00  0.00000000E+00
  0.00000000E+00  0.00000000E+00  0.00000000E+00
  0.00000000E+00  0.00000000E+00  0.00000000E+00
  0.00000000E+00  0.00000000E+00  0.00000000E+00
  0.00000000E+00  0.00000000E+00  0.00000000E+00
  0.00000000E+00  0.00000000E+00  0.00000000E+00
  0.00000000E+00  0.00000000E+00  0.00000000E+00
  0.00000000E+00  0.00000000E+00  0.00000000E+00
  0.00000000E+00  0.00000000E+00  0.00000000E+00
  0.00000000E+00  0.00000000E+00  0.00000000E+00
  0.00000000E+00  0.00000000E+00  0.00000000E+00
  0.00000000E+00  0.00000000E+00  0.00000000E+00
  0.00000000E+00  0.00000000E+00  0.00000000E+00
  0.00000000E+00  0.00000000E+00  0.00000000E+00
  0.00000000E+00  0.00000000E+00  0.00000000E+00
  0.00000000E+00  0.00000000E+00  0.00000000E+00
  0.00000000E+00  0.00000000E+00  0.00000000E+00
  0.00000000E+00  0.00000000E+00  0.00000000E+00
  0.00000000E+00  0.00000000E+00  0.00000000E+00
  0.00000000E+00  0.00000000E+00  0.00000000E+00
  0.00000000E+00  0.00000000E+00  0.00000000E+00
  0.00000000E+00  0.00000000E+00  0.00000000E+00
  0.00000000E+00  0.00000000E+00  0.00000000E+00
  0.00000000E+00  0.00000000E+00  0.00000000E+00
  0.00000000E+00  0.00000000E+00  0.00000000E+00
  0.00000000E+00  0.00000000E+00  0.00000000E+00
  0.00000000E+00  0.00000000E+00  0.00000000E+00
  0.00000000E+00  0.00000000E+00  0.00000000E+00
  0.00000000E+00  0.00000000E+00  0.00000000E+00
  0.00000000E+00  0.00000000E+00  0.00000000E+00
  0.00000000E+00  0.00000000E+00  0.00000000E+00
  0.00000000E+00  0.00000000E+00  0.00000000E+00
  0.00000000E+00  0.00000000E+00  0.00000000E+00
  0.00000000E+00  0.00000000E+00  0.00000000E+00
  0.00000000E+00  0.00000000E+00  0.00000000E+00
  0.00000000E+00  0.00000000E+00  0.00000000E+00
  0.00000000E+00  0.00000000E+00  0.00000000E+00
  0.00000000E+00  0.00000000E+00  0.00000000E+00
  0.00000000E+00  0.00000000E+00  0.00000000E+00
  0.00000000E+00  0.00000000E+00  0.00000000E+00
  0.00000000E+00  0.00000000E+00  0.00000000E+00
  0.00000000E+00  0.00000000E+00  0.00000000E+00
  0.00000000E+00  0.00000000E+00  0.00000000E+00
  0.00000000E+00  0.00000000E+00  0.00000000E+00
  0.00000000E+00  0.00000000E+00  0.00000000E+00
  0.00000000E+00  0.00000000E+00  0.00000000E+00
  0.00000000E+00  0.00000000E+00  0.00000000E+00
  0.00000000E+00  0.00000000E+00  0.00000000E+00
  0.00000000E+00  0.00000000E+00  0.00000000E+00
  0.00000000E+00  0.00000000E+00  0.00000000E+00
  0.00000000E+00  0.00000000E+00  0.00000000E+00
  0.00000000E+00  0.00000000E+00  0.00000000E+00
  0.00000000E+00  0.00000000E+00  0.00000000E+00
  0.00000000E+00  0.00000000E+00  0.00000000E+00
  0.00000000E+00  0.00000000E+00  0.00000000E+00
  0.00000000E+00  0.00000000E+00  0.00000000E+00
  0.00000000E+00  0.00000000E+00  0.00000000E+00
  0.00000000E+00  0.00000000E+00  0.00000000E+00
  0.00000000E+00  0.00000000E+00  0.00000000E+00
  0.00000000E+00  0.00000000E+00  0.00000000E+00
  0.00000000E+00  0.00000000E+00  0.00000000E+00
  0.00000000E+00  0.00000000E+00  0.00000000E+00
  0.00000000E+00  0.00000000E+00  0.00000000E+00
  0.00000000E+00  0.00000000E+00  0.00000000E+00
  0.00000000E+00  0.00000000E+00  0.00000000E+00
  0.00000000E+00  0.00000000E+00  0.00000000E+00
  0.00000000E+00  0.00000000E+00  0.00000000E+00
  0.00000000E+00  0.00000000E+00  0.00000000E+00
  0.00000000E+00  0.00000000E+00  0.00000000E+00
  0.00000000E+00  0.00000000E+00  0.00000000E+00
  0.00000000E+00  0.00000000E+00  0.00000000E+00
  0.00000000E+00  0.00000000E+00  0.00000000E+00
  0.00000000E+00  0.00000000E+00  0.00000000E+00
  0.00000000E+00  0.00000000E+00  0.00000000E+00
  0.00000000E+00  0.00000000E+00  0.00000000E+00
  0.00000000E+00  0.00000000E+00  0.00000000E+00
  0.00000000E+00  0.00000000E+00  0.00000000E+00
  0.00000000E+00  0.00000000E+00  0.00000000E+00
  0.00000000E+00  0.00000000E+00  0.00000000E+00
  0.00000000E+00  0.00000000E+00  0.00000000E+00
  0.00000000E+00  0.00000000E+00  0.00000000E+00
  0.00000000E+00  0.00000000E+00  0.00000000E+00
  0.00000000E+00  0.00000000E+00  0.00000000E+00
  0.00000000E+00  0.00000000E+00  0.00000000E+00
  0.00000000E+00  0.00000000E+00  0.00000000E+00
  0.00000000E+00  0.00000000E+00  0.00000000E+00
  0.00000000E+00  0.00000000E+00  0.00000000E+00
  0.00000000E+00  0.00000000E+00  0.00000000E+00
  0.00000000E+00  0.00000000E+00  0.00000000E+00
  0.00000000E+00  0.00000000E+00  0.00000000E+00
  0.00000000E+00  0.00000000E+00  0.00000000E+00
  0.00000000E+00  0.00000000E+00  0.00000000E+00
  0.00000000E+00  0.00000000E+00  0.00000000E+00
  0.00000000E+00  0.00000000E+00  0.00000000E+00
  0.00000000E+00  0.00000000E+00  0.00000000E+00
  0.00000000E+00  0.00000000E+00  0.00000000E+00
  0.00000000E+00  0.00000000E+00  0.00000000E+00
  0.00000000E+00  0.00000000E+00  0.00000000E+00
  0.00000000E+00  0.00000000E+00  0.00000000E+00
  0.00000000E+00  0.00000000E+00  0.00000000E+00
  0.00000000E+00  0.00000000E+00  0.00000000E+00
  0.00000000E+00  0.00000000E+00  0.00000000E+00
  0.00000000E+00  0.00000000E+00  0.00000000E+00
  0.00000000E+00  0.00000000E+00  0.00000000E+00
  0.00000000E+00  0.00000000E+00  0.00000000E+00
  0.00000000E+00  0.00000000E+00  0.00000000E+00
  0.00000000E+00  0.00000000E+00  0.00000000E+00
  0.00000000E+00  0.00000000E+00  0.00000000E+00
  0.00000000E+00  0.00000000E+00  0.00000000E+00
  0.00000000E+00  0.00000000E+00  0.00000000E+00
  0.00000000E+00  0.00000000E+00  0.00000000E+00
  0.00000000E+00  0.00000000E+00  0.00000000E+00
  0.00000000E+00  0.00000000E+00  0.00000000E+00
  0.00000000E+00  0.00000000E+00  0.00000000E+00
  0.00000000E+00  0.00000000E+00  0.00000000E+00
  0.00000000E+00  0.00000000E+00  0.00000000E+00
  0.00000000E+00  0.00000000E+00  0.00000000E+00
  0.00000000E+00  0.00000000E+00  0.00000000E+00
  0.00000000E+00  0.00000000E+00  0.00000000E+00
  0.00000000E+00  0.00000000E+00  0.00000000E+00
  0.00000000E+00  0.00000000E+00  0.00000000E+00
  0.00000000E+00  0.00000000E+00  0.00000000E+00
  0.00000000E+00  0.00000000E+00  0.00000000E+00
  0.00000000E+00  0.00000000E+00  0.00000000E+00
  0.00000000E+00  0.00000000E+00  0.00000000E+00
  0.00000000E+00  0.00000000E+00  0.00000000E+00
  0.00000000E+00  0.00000000E+00  0.00000000E+00
  0.00000000E+00  0.00000000E+00  0.00000000E+00
  0.00000000E+00  0.00000000E+00  0.00000000E+00
  0.00000000E+00  0.00000000E+00  0.00000000E+00