Bi16 Se8
1.0
   4.1249339500000000   -0.0000000000000000    0.0000000000000000
   0.0000000000000000   14.2649908500000002    0.0000000000000000
   0.0000000000000000   -0.0000000000000000   11.7940314500000003
Bi Se
16 8
direct
   0.5000000000000000    0.4904193500000000    0.8648860100000000 Bi
   0.5000000000000000    0.0095806500000000    0.3648860100000000 Bi
   0.0000000000000000    0.0095806500000000    0.1351139900000000 Bi
   0.0000000000000000    0.4904193500000000    0.6351139900000000 Bi
   0.5000000000000000    0.1696378300000000    0.8723926200000000 Bi
   0.5000000000000000    0.3303621700000000    0.3723926200000000 Bi
   0.0000000000000000    0.3303621700000000    0.1276073800000000 Bi
   0.0000000000000000    0.1696378300000000    0.6276073800000000 Bi
   0.0000000000000000    0.9904193500000000    0.8648860100000000 Bi
   0.0000000000000000    0.5095806500000000    0.3648860100000000 Bi
   0.5000000000000000    0.5095806500000000    0.1351139900000000 Bi
   0.5000000000000000    0.9904193500000000    0.6351139900000000 Bi
   0.0000000000000000    0.6696378300000000    0.8723926200000000 Bi
   0.0000000000000000    0.8303621700000000    0.3723926200000000 Bi
   0.5000000000000000    0.8303621700000000    0.1276073800000000 Bi
   0.5000000000000000    0.6696378300000000    0.6276073800000000 Bi
   0.0000000000000000    0.1673555400000000    0.3909059700000000 Se
   0.0000000000000000    0.3326444600000000    0.8909059700000000 Se
   0.5000000000000000    0.3326444600000000    0.6090940300000000 Se
   0.5000000000000000    0.1673555400000000    0.1090940300000000 Se
   0.5000000000000000    0.6673555400000000    0.3909059700000000 Se
   0.5000000000000000    0.8326444600000000    0.8909059700000000 Se
   0.0000000000000000    0.8326444600000000    0.6090940300000000 Se
   0.0000000000000000    0.6673555400000000    0.1090940300000000 Se
