Bi2 Se3
1.0
   9.6492966030216376   -1.9494582530760258    0.0026347515508577
   9.6492966030216376    1.9494582530760258    0.0026347515508577
   9.2545291993959466   -0.0000000000000000    3.3560401391232215
Bi Se
2 3
direct
   0.8908409500000000    0.8908409500000000    0.8908409500000000 Bi
   0.1091590500000000    0.1091590500000000    0.1091590500000000 Bi
   0.7201080200000000    0.7201080200000000    0.7201080200000000 Se
   0.2798919800000000    0.2798919800000000    0.2798919800000000 Se
   0.5000000000000000    0.5000000000000000    0.5000000000000000 Se
