Bi288 Se216
1.0
  17.7746670000000009    0.0000000000000000    0.0000000000000000
   0.0000000000000000   21.9862549999999999    0.0000000000000000
   0.0000000000000000    0.0000000000000000   41.6504580000000004
Bi Se
288 216
direct
   0.8426036898469040    0.6006934787211374    0.2955261620412433 Bi
  -0.0133739214354902    0.8669007068279704    0.2561340381899282 Bi
   0.7921329834196050    0.3794689000013872    0.2836919584413694 Bi
   0.9823587693654119    0.4635668966815858    0.2905514268294481 Bi
   0.2136934548478461    0.6289702361771025    0.2094630027837869 Bi
   0.2507006179074973    0.8237237310310465    0.2593128747827935 Bi
   0.9116232669787852    0.0218934966414244    0.2604965352361792 Bi
   0.0066899706194214    0.2215857134377819    0.2703115533567482 Bi
   0.1376605255108296    0.3407697218102856    0.2847795815354540 Bi
   0.2246494969497881    0.5197656444901598    0.2736032338467923 Bi
   0.3701357668191477    0.6713921948053454    0.2813078309967204 Bi
   0.5481897354251419    0.8666232607599611    0.2488952222326103 Bi
   0.1403643736335539    0.9870712406455762    0.2669166327054555 Bi
   0.2543946392919766    0.1574724754170276    0.2684892444640105 Bi
   0.3438157238051210    0.3391978306446460    0.2750726054440986 Bi
   0.4672672630097655    0.4974835414216746    0.2607846473140824 Bi
   0.5832683110181474    0.6913137321476532    0.2623860702804277 Bi
   0.8023441451814540    0.8124894394247679    0.2343407604305336 Bi
   0.3993177481187130    0.9240773383188724    0.2741362411909132 Bi
   0.5098419002730121    0.1887051705713411    0.2672215513212364 Bi
   0.6059747842252122    0.3195209916377301    0.2536106565742927 Bi
   0.5913978585365340    0.4115798711513170    0.1915541961147222 Bi
   0.4978411128602297    0.0221373762835008    0.2452674109850125 Bi
   0.6947865746233108    0.1918089278960878    0.2611279808735837 Bi
   0.1060447433417459    0.6263049346057343    0.0435217303012610 Bi
   0.1892406760700496    0.7698446142828780    0.0626975098329051 Bi
   0.0921620641331846    0.3101637818719014    0.0436996395093663 Bi
   0.1848327172599070    0.4533218594981274    0.0265348822814866 Bi
   0.3321119883708651    0.6192505272043829    0.0418545217437945 Bi
   0.4509609097036811    0.7971025533907435    0.0485627312909740 Bi
   0.0965120753035767    0.9721846671932077    0.0514395303888375 Bi
   0.1740128239814563    0.1122014640510628    0.0343724911740466 Bi
   0.2913252889632194    0.2971492871341663    0.0367657421678292 Bi
   0.4092132921533776    0.4758700378941298    0.0266650129033395 Bi
   0.5856874843281170    0.6408321926585496    0.0501483080930347 Bi
   0.7297295639912692    0.7523382222211105    0.0541525857890926 Bi
   0.3425037442332956    0.9491157088826633    0.0296407304812831 Bi
   0.4340272591323371    0.1324304662162792    0.0416970204745408 Bi
   0.5415038155145185    0.3054872237222756    0.0320704756716001 Bi
   0.6531205338474133    0.4777393876310450    0.0429303802613647 Bi
   0.8171179803255948    0.6208879138352575    0.0793681548471808 Bi
  -0.0100212285270942    0.8103881265818121    0.0517093953684735 Bi
   0.5614529937466620    0.9570160993766332    0.0398569446703323 Bi
   0.6881422869975568    0.1513864002759906    0.0437217281020055 Bi
   0.8582157966728716    0.2788187438015251    0.0479617775151476 Bi
   0.9456942287582659    0.4457075568349408    0.0531754056582043 Bi
   0.8532199224885619    0.9765100968764349    0.0510565814186245 Bi
   0.9747636903689954    0.1318209945258981    0.0714407510236742 Bi
   0.1498700369464024    0.5316094077868195    0.1481933283902905 Bi
   0.3005367132897623    0.7395074786497291    0.2075665050309891 Bi
   0.1293903283813981    0.3312928918544791    0.1274262098150277 Bi
   0.0995225395783786    0.3745130764652734    0.1926317352860802 Bi
   0.3101728994416604    0.5288576885877108    0.1697839673215598 Bi
   0.4133866474122975    0.7973026784234059    0.1410366243751749 Bi
   0.0777522301824276    0.9804216316057465    0.1849012080491408 Bi
   0.0057652275567244    0.1395385435127538    0.1727798527449566 Bi
   0.2616302178825629    0.2867896328865466    0.1805912914571071 Bi
   0.6766146448763288    0.5616781939443529    0.1069661706961302 Bi
   0.7494823953663942    0.7073282830568463    0.1638246090835304 Bi
   0.7617639194028221    0.8835565675009228    0.1441083793124196 Bi
   0.2477239095393461    1.0091395737928084    0.1470022250415590 Bi
   0.4766424034835646    0.1958387183265181    0.1818901967416541 Bi
   0.6669154476986826    0.4097491819320753    0.1206586971984798 Bi
   0.9818243008434420    0.5317822430423007    0.1461813457129331 Bi
   0.0542675145475299    0.6385989792258845    0.1739469467538629 Bi
   0.5602619728403351    0.7938232318327973    0.1001263899667082 Bi
   0.3800774439262350    0.9036281986177273    0.1928062831866099 Bi
   0.6290807023276441    0.9837100497560862    0.1243340469389316 Bi
   0.9705498280220947    0.3967155843503134    0.1531330099659408 Bi
   0.8208198780882927    0.2921202360292828    0.1433242342737264 Bi
   0.7088121538366936    0.0112425240223949    0.1847281007090006 Bi
   0.7113832287265917    0.0274351862106575    0.2590511729786981 Bi
   0.2392624289388938    0.4105560496774007    0.1623458738436922 Bi
   0.1064650043795476    0.7483766562336333    0.1883784807360342 Bi
   0.3432683155189349    0.1457628868581757    0.1405417918813762 Bi
   0.4411137491352159    0.6687541830111585    0.1353689796160225 Bi
   0.7521378600229192    0.5125884330914928    0.1895837495952626 Bi
   0.4239364934375423    0.0652348478629034    0.1829463676005676 Bi
   0.2080747841858303    0.6711602316993048    0.1390988305578777 Bi
   0.2398081494297474    0.1032103921290825    0.1857816305405333 Bi
   0.3777899186522032    0.3660991833306763    0.1206265246831139 Bi
   0.4167886802042480    0.4121720593161500    0.1820695465101488 Bi
   0.4529401310303028    0.6918458828026874    0.2102497888498609 Bi
   0.9502512761561159    0.7483357215678613    0.1459242056834045 Bi
   0.1126383971075239    0.0675240053387901    0.1256478380141702 Bi
   0.5666997868370756    0.2458294966559789    0.1102119933471080 Bi
   0.8634929700792707    0.1798905725417994    0.1810902055386762 Bi
   0.0718770146298662    0.5331467319013629    0.2192854637997018 Bi
   0.9172830073272259    0.6852554016134171    0.2120209578487708 Bi
   0.0737667828038635    0.8519095225630741    0.1191571530858076 Bi
   0.5825481850095982    0.8684789656082857    0.1703126529845122 Bi
   0.7331051546563432    0.1421606362702516    0.1215307164209335 Bi
  -0.0061857136339038    0.2815172479351304    0.1502014695732758 Bi
   0.8818111754217393    0.3274445784423041    0.2112468967328042 Bi
   0.9084164558469646    0.0313066504504746    0.1801958576301850 Bi
   0.1615608326164423    0.1926476337147913    0.1407245029574465 Bi
   0.1061747035823512    0.5880401187014341    0.6195177973793230 Bi
   0.2243321914272712    0.7601976780493085    0.6152177246166176 Bi
   0.0905597837641628    0.2665297023071915    0.6190136012429923 Bi
   0.2269426482082618    0.3914427445692775    0.6123750187813062 Bi
   0.3509731012119665    0.5954947761681105    0.6084278833140323 Bi
   0.4647586365471713    0.7518288130470606    0.6204589635004735 Bi
   0.1075249398483808    0.9320914362177644    0.6231023918152353 Bi
   0.2006861788184274    0.1089535257368752    0.6193569348024938 Bi
   0.3426623969945541    0.2669636097643732    0.6289126520529499 Bi
   0.4713567911005027    0.4216457054646187    0.6291191323754471 Bi
   0.6108693906895696    0.6467631708992733    0.5933092020260617 Bi
   0.7349448515688085    0.7903346886497951    0.6091505644427728 Bi
   0.3340428262312875    0.9301947967036678    0.6200436019214963 Bi
   0.5037315185707839    0.1015338901509147    0.6312319542800706 Bi
   0.6070268433158269    0.2642337223870095    0.6311623271945773 Bi
   0.7329194971697641    0.4037240539600764    0.6000126097052763 Bi
   0.8582776825017312    0.5754276933475028    0.6118540161070979 Bi
   0.9829494977318000    0.7845583524797652    0.6160580515105020 Bi
   0.6071787448957553    0.9431301510875773    0.6152657432962683 Bi
   0.7390068123357810    0.0908231074368964    0.6062646417957758 Bi
   0.8667166591644164    0.2599192086146549    0.6145118500257548 Bi
   0.9796020369889348    0.4325684387814114    0.6144446238742440 Bi
   0.8562860840093376    0.9235269944790506    0.6190424124507827 Bi
  -0.0176930459512969    0.1038894527512757    0.6216474258218241 Bi
   0.0224062706772509    0.7208185295767743    0.3397105501216818 Bi
   0.1382816341932032    0.8961689928548540    0.3525291366543917 Bi
  -0.0043963130223480    0.3973409750773835    0.3601809132567041 Bi
   0.1097173859853465    0.5446539212794539    0.3738326238813509 Bi
   0.3054549488887752    0.7383067284537544    0.3605890720337337 Bi
   0.4215561394202209    0.8898877958069712    0.3521665956230301 Bi
   0.0524950481491439    0.0517928132826623    0.3505555689207547 Bi
   0.1643912653891069    0.1944214692315722    0.3549324715709009 Bi
   0.2340021334858200    0.3681522842339453    0.3590812854927070 Bi
   0.3521444311727471    0.5710067494441413    0.3728482409485149 Bi
   0.5219850250921719    0.7653463493441699    0.3322844613137267 Bi
   0.6339415528853508    0.8876227443009280    0.3375665160752854 Bi
   0.2794448976174913    0.0547455671736728    0.3396121118283981 Bi
   0.3737729657607651    0.2158839693253808    0.3564642674517529 Bi
   0.4669162015805978    0.3882621210388035    0.3538496503447813 Bi
   0.6722151250428489    0.5753321791273684    0.3448845628540267 Bi
   0.7552546554036709    0.7464299854613713    0.3258523591745378 Bi
   0.9027679674674073    0.9129112711555469    0.3354753025765047 Bi
   0.5223360865213396    0.0527365847435136    0.3275234092263763 Bi
   0.6181494145572459    0.2174144709956289    0.3510501613211552 Bi
   0.7712268252339129    0.3813050471760653    0.3798397607056326 Bi
   0.8985878610271574    0.5467506858262128    0.3796092710433100 Bi
   0.7934888456700764    0.0325732599753801    0.3847592744358298 Bi
   0.9205854601945567    0.2208507087723671    0.3593165770229946 Bi
   0.2251985930313069    0.5257421056928522    0.5033366019648572 Bi
   0.2801616480353753    0.9776426226294566    0.4944171322197706 Bi
   0.1034567904985224    0.2076279020688153    0.4665518924185659 Bi
   0.0788712384878997    0.3834181855891329    0.4583815140760277 Bi
   0.3152779177241408    0.6734525729825293    0.5177278002561221 Bi
   0.3151766500041885    0.8367455030426963    0.4798074489360958 Bi
   0.0513013267702849    0.9619146143806665    0.4511811130624302 Bi
   0.3942796790510900    0.1048477787599571    0.4975335445290902 Bi
   0.3610874960414167    0.3179527391090479    0.4990245245322393 Bi
   0.4845671651682701    0.5350934026736249    0.5388392127644791 Bi
   0.5007649369746280    0.5897411814790650    0.4656827543168913 Bi
   0.6684682194046168    0.8219544438104625    0.4723021293067174 Bi
   0.4524523581791997    0.9291805266517650    0.5129571444328416 Bi
   0.2544199562219647    0.2657292021765417    0.4291981615184160 Bi
   0.4422136290935858    0.2138799900210381    0.4550418149063331 Bi
   0.5420005899407285    0.4602602853464585    0.4694786309432660 Bi
   0.7614151083674310    0.6690134358943803    0.4674930585397164 Bi
   0.0257351094116137    0.8322017551420194    0.4452436033236417 Bi
   0.8071881177858353    0.0389335518941266    0.4806933935756481 Bi
   0.8000487435292036    0.1828778934839062    0.4786429959545703 Bi
   0.9149594757527667    0.6092260823864728    0.4709191913327820 Bi
   0.9182900585423063    0.7349546341566583    0.4711160679193492 Bi
   0.9551121267138226    0.8637669307483243    0.5136606180897219 Bi
   0.9614019773197439    0.1503939620458327    0.4898121408412844 Bi
   0.2294957199479461    0.6995234067830105    0.4498557975040754 Bi
   0.4080807814852452    0.9874896838956886    0.4435053271202924 Bi
  -0.0237042415478163    0.5662537799184081    0.5345271353318612 Bi
   0.1233643364457967    0.6792698438183310    0.5219366375274913 Bi
   0.1097263875604533    0.8816735728754169    0.4943643116721549 Bi
   0.4905852807256529    0.7954651667598688    0.4951062002727558 Bi
   0.1210953769204227    0.0681125548666656    0.4886044710480735 Bi
   0.2513892384031723    0.1686999445790109    0.4859754483372067 Bi
   0.2026378328212844    0.3152037488876573    0.4920282029071565 Bi
   0.4144381439044681    0.7296058378291346    0.4404705465663787 Bi
   0.8158127519350995    0.7181213899320280    0.5301310252098549 Bi
   0.7094703940163830    0.1453653657705689    0.4278464356862535 Bi
   0.5419330781274271    0.9036554883949085    0.4501895273276467 Bi
   0.4037825293717177    0.4541255434361149    0.4819058652368240 Bi
   0.4679007488579111    0.2223148053181408    0.5303134961925269 Bi
   0.5913641026298834    0.7033985551427471    0.4531282705222593 Bi
   0.8317905477497834    0.8464834052002035    0.4591306054785760 Bi
  -0.0038511551299386    1.0085983265453802    0.5147866561275268 Bi
   0.5225695648756740    0.0314512862695352    0.4874184096607053 Bi
   0.6209567807936993    0.2135788928128051    0.4807198038494560 Bi
   0.6411428129708422    0.5919243636535645    0.5009356679823305 Bi
   0.0716958579308406    0.6605308634872106    0.4469434645832707 Bi
   0.8852205219934641    0.1151305668018496    0.4246916084332134 Bi
   0.0366522759610630    0.2962628242053956    0.5098887508031725 Bi
   0.0767873738506606    0.7388525239973792    0.9328804979767570 Bi
   0.1906269186365067    0.9156402488736712    0.9348372591725161 Bi
   0.0793078148805826    0.4122543834773134    0.9448923706913380 Bi
   0.2033337670967338    0.6007935412374685    0.9601959238959631 Bi
   0.2948252138844570    0.7622535079302956    0.9518574801746478 Bi
   0.4762806526839575    0.9146305271179653    0.9572115629556822 Bi
   0.0775688230896252    0.0541683883862895    0.9693698926431973 Bi
   0.1723070254987056    0.2204036112562144    0.9630410306652570 Bi
   0.3002531636738961    0.3851642764991128    0.9347988442287959 Bi
   0.4165265093292606    0.5788707535685363    0.9463353320148365 Bi
   0.5904808230725223    0.7345316426103490    0.9740421101731943 Bi
   0.6866120192293897    0.8930579582561924    0.9584504448906660 Bi
   0.3442731163402386    0.0429232263521004    0.9628801680884277 Bi
   0.4156032852823628    0.2294333436958682    0.9749904790962924 Bi
   0.5524553568289071    0.4132045225528404    0.9431733019598488 Bi
   0.7039006694190107    0.5722939172678566    0.9672090520589234 Bi
   0.8316330201854133    0.7410129646908944    0.9781477072833149 Bi
   0.9531655360969632    0.8921255575358331    0.9665007765340781 Bi
   0.5707617476040480    0.0710653087576761    0.9516077830404651 Bi
   0.6585833647403915    0.2452850656012131    0.9504217216530969 Bi
   0.8532199224885619    0.4207001146852886    0.9489115341780875 Bi
   0.9568167999996851    0.5837647202763726    0.9310413825461415 Bi
   0.8601961431963817    0.0752038034672117    0.9730481235044283 Bi
   0.9613288395220005    0.2421735761729317    0.9631010540148202 Bi
  -0.0040001311979572    0.6391402264733126    0.6956298055594010 Bi
   0.0948794146185692    0.8060126656404194    0.7101722626915652 Bi
   0.9988091478732063    0.2991009610322449    0.6978050517475702 Bi
   0.1042641192659193    0.4659683970735352    0.6908159329244351 Bi
   0.2252908591761522    0.6052417749180113    0.7083235435250196 Bi
   0.3750224969052866    0.8248016772297055    0.6834042497203752 Bi
   0.9746174147735088    0.9767147702052942    0.7002131885320445 Bi
   0.0832116854847407    0.1278144004060719    0.7143714962270044 Bi
   0.2267412379652457    0.2903404877274461    0.6975169396696670 Bi
   0.3553399903356839    0.4805820727540911    0.6922564933139511 Bi
   0.4741692207229536    0.6602943520849731    0.7010247042181386 Bi
   0.6064192369961137    0.8077637596762158    0.6984244927150621 Bi
   0.2542551148778202    0.9778654891431033    0.7077809324449685 Bi
   0.3670892962439184    0.1278780765528281    0.7165035256034880 Bi
   0.4972475715016208    0.3194627734464101    0.7201913602006490 Bi
   0.6048045794613198    0.4858717412310555    0.6988686655018296 Bi
   0.7380560209651186    0.6541405073306027    0.6831185385764547 Bi
   0.8525054224644546    0.8235918304413371    0.7013536321737447 Bi
   0.4878639920511592    0.9731534542831419    0.6858147874388320 Bi
   0.6283380723813279    0.1536855640035104    0.7136608197681764 Bi
   0.7020497205376618    0.3242616807637317    0.7128060872703970 Bi
   0.8466375206916675    0.4975199277912495    0.6825519181565782 Bi
   0.7028767402506050    0.9892453262276818    0.6897571210381408 Bi
   0.8412365756275491    0.1519399279231502    0.6945157721915087 Bi
   0.3958881480029978    0.7338312049960305    0.8260845534999879 Bi
   0.3266755996047633    0.0150854249620956    0.8144304199488034 Bi
   0.0414607486036166    0.2841802753584000    0.8322525529010990 Bi
   0.0662465294005227    0.7633132609441671    0.7965698720527876 Bi
   0.5645844166869624    0.6946339883713710    0.8618296586318451 Bi
   0.5875103032872571    0.8379098668690962    0.8601874197877968 Bi
   0.4185878700287325    0.8804318880136702    0.8383773354905245 Bi
   0.3067759300357076    0.1330403927362800    0.8414361253842635 Bi
   0.1849469247440754    0.3697537393248645    0.8428742848397970 Bi
   0.6187738988302847    0.6271554659945497    0.7961281002000027 Bi
   0.7258420087419922    0.7620897692672082    0.8933131059447174 Bi
   0.7804365617651233    0.8167921276270107    0.8358179398651511 Bi
   0.4999806747434425    0.9576983438061644    0.7806084629369503 Bi
   0.3977621634205580    0.2211813699058798    0.7905963483042612 Bi
   0.6710224163411893    0.4654180532337135    0.8114244506026801 Bi
   0.8144681416535118    0.5516810389036241    0.8714526020338119 Bi
   0.7792832349545564    0.6796018694407029    0.8250353453496239 Bi
   0.1900896371223157    0.9390867157685562    0.7966178907324380 Bi
   0.6302284031537694    0.9897228973283536    0.8385189905954936 Bi
   0.7370264658122709    0.2961550295855297    0.7957631582346586 Bi
   0.9326982046977307    0.3694940316120230    0.8671981470167747 Bi
   0.8851136282890700    0.4850212098422401    0.8127761764348426 Bi
   0.1048582232229723    1.0185636435127310    0.8464612802096918 Bi
   0.1673465950163792    0.0999319802303757    0.7998879628166394 Bi
   0.9560516661156016    0.6005024502808687    0.8410879899567971 Bi
   0.9435732326237110    0.9098047848530820    0.8040079655306551 Bi
   0.0840983406327668    0.3716631140683123    0.7793647791340015 Bi
   0.0709762945207356    0.4846164114807183    0.8709676133693417 Bi
   0.1238549222891208    0.8648903599089521    0.8660480996391445 Bi
   0.2714408095521564    0.8139949254659331    0.8168625660731030 Bi
   0.2529240069588927    0.9392004231734782    0.8654334605396176 Bi
   0.1366742904381837    0.1299762055884461    0.8704946293747839 Bi
   0.5161615685964750    0.4904973584632762    0.7988315518643277 Bi
   0.4406209128981151    0.6058057636464236    0.8478226097777845 Bi
   0.5555265817356804    0.7683345799455160    0.8024161463002399 Bi
   0.6699253493750403    0.8762292623277589    0.7960128553688414 Bi
   0.1958759621206968    0.2239180797275389    0.8344205962873206 Bi
   0.4682298689477558   -0.0028953998759680    0.8482907919043772 Bi
   0.2833588949936446    0.4244920292246224    0.7947355584901372 Bi
   0.6100817528677189    0.5738266930862032    0.8603410795626785 Bi
   0.9370414646867927    0.7438874878873186    0.8624779108071273 Bi
   0.7851961446028778    0.9490656776244976    0.8371912741031563 Bi
   0.4879472566208976    0.1070964563996915    0.8062648434742302 Bi
   0.9374409095821599    0.0181001266473076    0.8485284843686473 Bi
   0.7658652620608870    0.3969393605231996    0.8443052414933829 Bi
   0.8832458014543958    0.3382749813463002    0.8040895972860610 Bi
   0.0106453189812220    0.1522114612061035    0.8187136861736312 Bi
   0.8678418560527744    0.2111801213985738    0.8677455599647909 Bi
   0.9460936736536331    0.6545316608035339   -0.0126649027484884 Se
   0.0811683279354826    0.8608241831089469    1.0010718249484796 Se
   0.9753825486575922    0.3493782820221088    0.0073544209285766 Se
   0.0825101252248495    0.5440717393662541    0.9960682785288940 Se
   0.1739773802794730    0.7205046971391900    0.9877106273357186 Se
   0.3126984038575800    0.8288041778829546    0.0253701892065629 Se
  -0.0310952098286848    1.0158301174984097    0.0089321466765143 Se
   0.0645542332804322    0.1916242670704947    0.0117196070208880 Se
   0.1913256659041770    0.3522619018109269    0.9785342576545016 Se
   0.3012506507154255    0.5176734282395979    0.9901283678561230 Se
   0.4383210104583113    0.6898218909950785    0.0020011064464165 Se
   0.5485880551236206    0.8519959401908146    0.0075137469076571 Se
   0.1922111958553148    1.0040727718294908    0.0137996081579703 Se
   0.2994390837251691    0.1455627618255133    0.0047259264231860 Se
   0.4110186705607480    0.3529673425510620    1.0014031538380683 Se
   0.5456996747112056    0.5209209117241658    0.9864357313909971 Se
   0.6941395864125049    0.6742667180017697    0.0068373797954395 Se
   0.8752231476404031    0.8465698228279441    0.0154086901037199 Se
   0.4528776826029989    0.0138638435695392    1.0053022706256916 Se
   0.5590473227993527    0.1887961364952785    0.9992711244615846 Se
   0.6568168056256694    0.3736047817147576    0.9872352424071784 Se
   0.8199928583753496    0.4900561737321795    0.0129030753995550 Se
   0.6925361808465947    0.0137635536383982   -0.0014363107363669 Se
   0.8173542716721500    0.1784232921886879    1.0015304033391421 Se
   0.0803576235774206    0.7214007114899741    0.0989703402541216 Se
   0.2237454012499925    0.9022773546472558    0.0890518418789056 Se
   0.0760694982358882    0.4231616525870368    0.0815009045038592 Se
   0.2033883391458192    0.5412472474279953    0.0745077040929538 Se
   0.3463282884568246    0.7173709210595438    0.0861121383107000 Se
   0.4698377753012195    0.9055202898356268    0.0861335066231445 Se
   0.9850086080374951    1.0094852443037707    0.0950940323393323 Se
   0.2530646565699374    0.2210544724419870    0.0792882037455627 Se
   0.2838421670571944    0.4003537664781928    0.0647875228646946 Se
   0.4673409634059530    0.5928067331157580    0.0842687011989160 Se
   0.6339865607608852    0.6934741728411683    0.1121399433350769 Se
   0.6750393692326275    0.8837475959411913    0.0859198234986996 Se
   0.3094629002051065    0.0564443558032052    0.0721809589704872 Se
   0.4351035099560515    0.2513993401786707    0.0804987546595526 Se
   0.4834802249741162    0.4228132530983562    0.0738251185617215 Se
   0.8338890399465712    0.6078752384160013    0.1595956039667079 Se
   0.8715493797999141    0.8511817951715743    0.0988829462571576 Se
   0.2586034382528798    0.8481617264968500    0.1722137125118768 Se
   0.5231563550529527    0.0813626513473986    0.0928894947565763 Se
   0.6850648735078975    0.2900352970526358    0.0559314377767467 Se
   0.8317624178275745    0.3794065883434901    0.0881116361313482 Se
  -0.0334735947514516    0.5984784584732598    0.0801667054897692 Se
   0.7887742707078563    0.0215582417287528    0.1318213595634411 Se
   0.8650794976918555    0.1971809205342156    0.1047839617994117 Se
   0.0618543233468171    0.7138641846917539    0.2526166699055266 Se
   0.1174958720745654    0.8825468457452167    0.2249014884782300 Se
  -0.0013275072888848    0.3699283938988245    0.2421197865339200 Se
   0.9139017906777099    0.5691646894844075    0.2326740320598635 Se
   0.4179273794552663    0.8193619149782444    0.2345623666371208 Se
   0.5122537598032076    0.9728851048075263    0.1884879633256374 Se
   0.0661221951443591    0.0738706978519079    0.2319273415912977 Se
   0.1071935693647594    0.2161268483422939    0.2101371850460804 Se
   0.1908744619519454    0.4218935876073483    0.2423262668564173 Se
   0.3612889062844328    0.5887723943891309    0.2319232600035275 Se
   0.5837802756023502    0.7430051184251251    0.1955709586674893 Se
   0.7143818784340658    0.9090361227958104    0.2166634037973844 Se
   0.2638361663821888    1.0014165668505164    0.2164725295457736 Se
   0.3835036684512852    0.2255472794252591    0.2317708006956370 Se
   0.4782407456634771    0.3676678906889782    0.2350401524996436 Se
   0.6038762920284245    0.5726850707407879    0.1723102300579744 Se
   0.7733703253062350    0.6874795184536885    0.2321640736819749 Se
   0.9106218417481464    0.8617111008673373    0.1909241910377072 Se
   0.6212999658446484    0.1450265177039018    0.1792009105878259 Se
   0.5907396183568446    0.3099527409283664    0.1601732686829038 Se
   0.7268996938170488    0.3855363271280170    0.2179906401029252 Se
   0.6916022674292576    0.5672725982665079    0.2802274107045834 Se
   0.8298439571329240    0.0881291515994879    0.2287686728438857 Se
   0.8513239657316787    0.2311421385770337    0.2648398248105699 Se
  -0.0093854922851719    0.5857295842334223    0.3236963204582288 Se
   0.1835663081620601    0.7954606184636720    0.3244430109267946 Se
   0.0335070693588803    0.2824560162701651    0.3288127107749932 Se
   0.1211347588115153    0.4508594119371399    0.3235210522775044 Se
   0.2226387701102923    0.6398906953457967    0.2970075383084623 Se
   0.3766748485358404    0.7797007721415039    0.3118092963107393 Se
   0.0181614654159203    0.9534502351582842    0.3046713195806874 Se
   0.1535950012453117    0.1056264470688619    0.3047289419962681 Se
   0.2546596231591849    0.2660848789391372    0.3211345238988729 Se
   0.3314644375616151    0.4615929361321425    0.3318066754512040 Se
   0.4979170636501939    0.6033769734772930    0.3079341888629412 Se
   0.6592978647644988    0.7945282177433127    0.2797976435217111 Se
   0.2460524295616902    0.9335468910007639    0.2966329926071882 Se
   0.3900843824528471    0.1244873217380586    0.3106976638768294 Se
   0.4884074621482360    0.2817815039441687    0.3186471562929752 Se
   0.5770684761632946    0.4431182118100604    0.3090818353065889 Se
   0.6358656395644431    0.6862787682577137    0.3684137158827882 Se
   0.8940308136293074    0.7723507254873557    0.2912693060902236 Se
   0.5405147674496518    0.9413654121631900    0.3008466317465225 Se
   0.6541444630158191    0.0906971196322430    0.3080542355620676 Se
   0.7461461865924126    0.2781274027796002    0.3238283718272678 Se
   0.8364263589298185    0.4513733694073866    0.3294057414686773 Se
   0.8031824168632808    0.9250597702973972    0.2842825882010709 Se
   0.8466487726605511    0.1313306881958751    0.3208512136889347 Se
   0.8370395912339736    0.6476500886576636    0.3513886930126915 Se
   0.0192426671059435    0.8457010982543413    0.3706753956943283 Se
   0.6699028454372732    0.3912344326034606    0.4713105435719338 Se
  -0.0208219934584429    0.4699345113572093    0.4180290166317019 Se
   0.1465163876206514    0.6621773467104789    0.3837700896350287 Se
   0.2897179452081999    0.8649494877595115    0.3920869249505012 Se
   0.9608056229689141   -0.0133869092303350    0.3931649443086556 Se
   0.0400957722583495    0.1566828911972503    0.3938636160975709 Se
   0.0969942221702381    0.3272540048316551    0.3962261351363772 Se
   0.2189633144744709    0.4735322136489366    0.4083820638899097 Se
   0.4189974416960948    0.6751490874639633    0.3832562897627680 Se
   0.5384646587190635    0.8399520518614926    0.3837700896350287 Se
   0.1881891795778790    0.9927111279296997    0.3899669002439301 Se
   0.2702272847080623    0.1291379545993622    0.4046029938014127 Se
   0.3691264652102906    0.3521254529250207    0.4027062559552166 Se
   0.3301738367306685    0.5934980741376829    0.4551258475957215 Se
   0.5120067790862129    0.5025094087192202    0.3827352870885598 Se
   0.7887405148012056    0.8797405469917454    0.3839549615516833 Se
   0.3994797764706365    0.0071579266227923    0.3695925744682088 Se
   0.5315919561249727    0.1398282699804946    0.3881517941531399 Se
   0.5720332200878925    0.3091708888121237    0.4120674975530882 Se
   0.7491223323621197    0.5306815553626573    0.3985046214857950 Se
   0.6430387697277254    0.9952627220961461    0.3767977773497713 Se
   0.8997411878377243    0.3214144473444887    0.4022764887723443 Se
   0.9581220283901802    0.6560007604751241    0.5835998250007239 Se
   0.1066883559618867    0.8214677761173970    0.5837438810396754 Se
   0.9565467527464792    0.3326009818407000    0.5762721744860525 Se
   0.1085443682292332    0.4726907788525149    0.5567021615944776 Se
   0.2422565778588144    0.6163487142307773    0.5700921704150288 Se
   0.3255459019288519    0.8247016147133743    0.5798639717239124 Se
   0.9883560687803602    0.9993880267467106    0.5834677736316849 Se
   0.0932748838557707    0.1484250046222060    0.5822793113103342 Se
   0.2139426859586174    0.2839342125341492    0.5846394294151580 Se
   0.3612523373855612    0.4860809628561116    0.5593215805694142 Se
   0.4337020772316016    0.6604899288214386    0.5660682050603142 Se
   0.5748124564021369    0.7684164492770597    0.5802529230290817 Se
   0.1769822185698331   -0.0081587792009144    0.5804690070875091 Se
   0.3669323312779925    0.1496075616333932    0.5914700865954464 Se
   0.4937043265001814    0.3212443410667256    0.5899719037903497 Se
   0.5840278189177890    0.4882732416230049    0.5898614608271535 Se
   0.7274791702145531    0.5978507935980912    0.5601667093312636 Se
   0.8508570090230101    0.8454418453711194    0.5749780710694706 Se
   0.4744820254579171    0.9863708030312575    0.5992347070949376 Se
   0.6063010913228360    0.1513964065276237    0.5913212286885297 Se
   0.7270909772880696    0.2851431496632783    0.5728364379570567 Se
   0.8372139967516691    0.4702483437947936    0.5638977607401100 Se
   0.7503206670482210    0.9278842622356559    0.5247913480327155 Se