Nb6 Se8
1.0
   5.0782856835480814   -8.7958488192549211    0.0000000000000000
   5.0782856835480814    8.7958488192549211    0.0000000000000000
   0.0000000000000000    0.0000000000000000    3.4903263800000000
Nb Se
6 8
direct
   0.5130268600000000    0.8939638200000000    0.7500000000000000 Nb
   0.6190630400000000    0.5130268600000000    0.2500000000000000 Nb
   0.8939638200000000    0.3809369600000000    0.2500000000000000 Nb
   0.1060361800000000    0.6190630400000000    0.7500000000000000 Nb
   0.3809369600000000    0.4869731400000000    0.7500000000000000 Nb
   0.4869731400000000    0.1060361800000000    0.2500000000000000 Nb
   0.6587095400000000    0.7189418300000000    0.7500000000000000 Se
   0.9397677100000000    0.6587095400000000    0.2500000000000000 Se
   0.7189418300000000    0.0602322900000000    0.2500000000000000 Se
   0.2810581700000000    0.9397677100000000    0.7500000000000000 Se
   0.0602322900000000    0.3412904600000000    0.7500000000000000 Se
   0.3412904600000000    0.2810581700000000    0.2500000000000000 Se
   0.6666666666666666    0.3333333333333333    0.7500000000000000 Se
   0.3333333333333334    0.6666666666666667    0.2500000000000000 Se
