Bi54 Se81
1.0
  12.5739999999999998    0.0000000000000000    0.0000000000000000
   0.0000000000000000   10.8900000000000006    0.0000000000000000
   0.0000000000000000    0.0000000000000000   29.9280000000000008
Bi Se
54 81
direct
   0.5333951000000000    0.0476170800000000    0.8477325600000000 Bi
   0.7511444300000000    0.6098769500000000    0.9120372200000000 Bi
   0.6341410800000000    0.9278402200000000    0.4435849400000000 Bi
   0.4659583300000000    0.8048521600000000    0.6598513100000000 Bi
   0.3288794300000000    0.0996317700000000    0.9567766000000000 Bi
   0.7961070500000000    0.0653406800000000    0.3484893700000000 Bi
   0.2905972600000000    0.8205307600000000    0.8502559500000000 Bi
   0.1335366600000000    0.3886152400000000    0.9316663300000000 Bi
   0.5372140900000000    0.3855564700000000    0.6560926200000000 Bi
   0.0737323000000000    0.0625500500000000    0.9279814900000000 Bi
   0.2801415600000000    0.5634297500000000    0.5839110500000000 Bi
   0.0425942400000000    0.6769347999999999    0.9340604100000000 Bi
   0.2825910600000000    0.5704811800000000    0.7440340100000000 Bi
   0.5989557800000000    0.3182277300000000    0.7910475100000000 Bi
   0.2786392600000000    0.2355766800000000    0.8313779700000000 Bi
   0.5784181600000000    0.0811671300000000    0.6166345900000000 Bi
   0.8760020700000000    0.9843259900000000    0.5514815600000000 Bi
   0.2329346300000000    0.8937529800000000    0.4572049600000000 Bi
   0.7897343700000000    0.6285316800000000    0.4865607500000000 Bi
   0.4999689800000000    0.7882304900000000    0.9513933400000000 Bi
   0.4539812300000000    0.9580293800000000    0.3329581000000000 Bi
   0.8858342600000000    0.4215546400000000    0.3711781600000000 Bi
   0.4615961500000000    0.5767502300000000    0.8258797800000000 Bi
   0.0188404600000000    0.6148117500000000    0.8009860300000000 Bi
   0.7546413199999999    0.3607309500000000    0.5487129100000000 Bi
   0.9637967200000001    0.2409660200000000    0.8224692600000000 Bi
   0.2273842900000000    0.3714095500000000    0.6660057500000000 Bi
   0.3326546800000000    0.6860284700000000    0.3472711200000000 Bi
   0.8226260500000000    0.2770789700000000    0.9559970600000000 Bi
   0.7095562300000000    0.6886528900000000    0.6214785500000000 Bi
   0.1665643400000000    0.9805133100000000    0.7291613200000000 Bi
   0.0245132800000000    0.7553103799999999    0.5092802700000000 Bi
   0.9386519800000001    0.0624545500000000    0.6791225600000000 Bi
   0.3707276900000000    0.2637355400000000    0.4109863700000000 Bi
   0.4826085600000000    0.4186850300000000    0.9416700099999999 Bi
   0.6689168100000000    0.2297180900000000    0.4590691000000000 Bi
   0.4411181800000000    0.0395711700000000    0.7373643400000000 Bi
   0.4500524900000000    0.8367125800000000    0.5155961000000000 Bi
   0.6959249199999999    0.9365684100000000    0.7040637500000000 Bi
   0.1858628900000000    0.0412259000000000    0.5927592900000000 Bi
   0.7797574400000000    0.9655702500000000    0.8843932100000000 Bi
   0.0213893700000000    0.3619641900000000    0.5534957200000000 Bi
   0.6897113100000000    0.5998292000000000    0.7717789400000000 Bi
   0.0478694100000000    0.7111331500000000    0.6348352700000000 Bi
   0.5582797800000000    0.3824012900000000    0.3489895700000000 Bi
   0.9210386500000000    0.8940844800000000    0.7675848700000000 Bi
   0.3764768600000000    0.3006317700000000    0.5390203200000000 Bi
   0.8880380100000000    0.4134187300000000    0.6980887500000000 Bi
   0.5376069700000000    0.6001368200000000    0.4545155000000000 Bi
   0.0857205300000000    0.1291607000000000    0.4102512700000000 Bi
   0.6856569100000000    0.7113480300000000    0.3375718400000000 Bi
   0.9952123400000000    0.7778292000000000    0.3850083500000000 Bi
   0.1851121400000000    0.4943966900000000    0.4437917700000000 Bi
   0.5837999000000000    0.1183719000000000    0.9840787900000000 Bi
   0.8983155700000000    0.8321285600000000    0.0321932600000000 Se
   0.1292540200000000    0.5521377400000000    0.5250548000000000 Se
   0.4623357700000000    0.5861946700000000    0.7016232300000000 Se
   0.0345777000000000    0.3358558300000000    0.6388722900000000 Se
   0.9213535899999999    0.9843810800000000    0.4141897200000000 Se
   0.6301598500000000    0.1235794300000000    0.1212807400000000 Se
   0.6745729300000000    0.9224040400000000    0.9613405500000000 Se
   0.1694814700000000    0.6231662100000001    0.8615390300000000 Se
   0.8307109900000000    0.4973039500000000    0.9800170400000000 Se
   0.1916756800000000    0.0143820000000000    0.8151998100000000 Se
   0.8310975000000000    0.8572975200000000    0.2511801700000000 Se
   0.7683306800000000    0.1552323200000000    0.5923138900000000 Se
   0.6306298700000000    0.2615867800000000    0.9220896800000000 Se
   0.0075178900000000    0.9369467400000000    0.6132551500000000 Se
   0.0140567800000000    0.3443728200000000    0.4333223100000000 Se
   0.3022117100000000    0.2259889800000000    0.2279073100000000 Se
   0.3399013800000000    0.7897070700000000    0.5865249900000000 Se
   0.1803920800000000    0.7499889800000000    0.7027489300000000 Se
   0.9288754600000000    0.0022865000000000    0.1504073100000000 Se
   0.3613321100000000    0.5996721800000000    0.2196190900000000 Se
   0.3038150200000000    0.1594196500000000    0.6512510000000000 Se
   0.6691299500000000    0.0084876000000000    0.1844146000000000 Se
   0.1148536700000000    0.1473241500000000    0.3230276000000000 Se
   0.8194655600000000    0.0833498600000000    0.8035652200000000 Se
   0.0657738200000000    0.0247814500000000    0.2613652800000000 Se
   0.4976872900000000    0.3658787900000000    0.4681960000000000 Se
   0.7540599700000000    0.7420652000000000    0.1329280300000000 Se
   0.4087688900000000    0.2648475700000000    0.7644389900000000 Se
   0.6227652299999999    0.6541882500000000    0.1784806900000000 Se
   0.4890798500000000    0.0797878800000000    0.5397196600000000 Se
   0.1877485300000000    0.8299972500000000    0.0639902400000000 Se
   0.2135239400000000    0.8537768600000000    0.1753257800000000 Se
   0.5460911400000000    0.6074343400000000    0.9025908800000000 Se
   0.6095729300000000    0.4959742900000000    0.5858704200000000 Se
   0.6833823800000000    0.2848521600000000    0.7088973500000000 Se
   0.1659130000000000    0.3543204800000000    0.2674779500000000 Se
   0.0289327200000000    0.7450899900000000    0.0922604300000000 Se
   0.4042516300000000    0.1714499500000000    0.2915016000000000 Se
   0.2491092700000000    0.9184196500000000    0.2466573100000000 Se
   0.1363329100000000    0.0424545500000000    0.0628197700000000 Se
   0.4080920900000000    0.9417630900000000    0.9030877400000000 Se
   0.6917138500000000    0.3112626300000000    0.1459436000000000 Se
   0.2824312100000000    0.4543921000000000    0.3182969100000000 Se
   0.9456258900000000    0.7978962400000000    0.2021204200000000 Se
   0.4505280700000000    0.8555720800000000    0.1121060500000000 Se
   0.1716359200000000    0.7849448999999999    0.9887550100000000 Se
   0.5033664700000000    0.4933498600000000    0.1087931000000000 Se
   0.6002704000000000    0.5649302100000000    0.0496421400000000 Se
   0.6421353600000000    0.9257079900000000    0.3599746100000000 Se
   0.7243232100000000    0.2728108400000000    0.3789712000000000 Se
   0.3604954700000000    0.6178879700000000    0.1063362100000000 Se
   0.8769365400000000    0.1746877900000000    0.2236948700000000 Se
   0.3147304000000000    0.2957851200000000    0.9133707599999999 Se
   0.0819039300000000    0.6804903600000000    0.2586039800000000 Se
   0.7407046300000000    0.8045684100000000    0.5457862200000000 Se
   0.1155956700000000    0.0663590400000000    0.1475574700000000 Se
   0.9686440300000000    0.3217401300000000    0.1869440000000000 Se
   0.9856632700000000    0.2540753000000000    0.9061601200000000 Se
   0.0654032100000000    0.4713388400000000    0.0539341100000000 Se
   0.3817774800000000    0.0200652000000000    0.4102065000000000 Se
   0.9158286900000000    0.0303884300000000    0.0484369200000000 Se
   0.8751630300000000    0.6532112000000000    0.6771795600000000 Se
   0.4413138200000000    0.4202176300000000    0.1965921500000000 Se
   0.8227660300000000    0.5303764900000000    0.8351924600000000 Se
   0.4270017500000000    0.3261799800000000    0.0725511200000000 Se
   0.8944997600000000    0.2892277300000000    0.1168023300000000 Se
   0.1883243200000000    0.7103204800000000    0.4074796200000000 Se
   0.1741402900000000    0.3759990800000000    0.1058066000000000 Se
   0.8329576900000000    0.6427465600000000    0.4004307000000000 Se
   0.6298528700000000    0.8254517900000000    0.7758573900000000 Se
   0.5002091600000000    0.8516804400000000    0.1874662500000000 Se
   0.9814824200000000    0.8829219500000000    0.8882838800000000 Se
   0.1638333100000000    0.5446042200000000    0.2041112000000000 Se
   0.4491729000000000    0.1609899000000000    0.1327706500000000 Se
   0.5206402100000000    0.6049366400000000    0.3713609300000000 Se
   0.6538356900000000    0.8408613400000000    0.0780697000000000 Se
   0.1794846500000000    0.2001469200000000    0.5284412600000000 Se
   0.9354103700000000    0.5301184600000000    0.2826132700000000 Se
   0.7925998100000000    0.5694747500000000    0.0906121400000000 Se
   0.8618196299999999    0.4975959600000000    0.2076122700000000 Se
   0.0378805500000000    0.3923654700000000    0.7628912700000000 Se
