Bi6 Se9
1.0
   2.0713334500000000   -3.5876547799999998   -0.0000000000000000
   2.0713334500000000    3.5876547799999998    0.0000000000000000
  -0.0000000000000000   -0.0000000000000000   27.7400449599999988
Bi Se
6 9
direct
   0.2515972500000000    0.0522223600000000    0.2403628900000000 Bi
   0.2515972500000000    0.0522223600000000    0.4444035700000000 Bi
   0.9182639100000000    0.3855556900000000    0.5827461100000000 Bi
   0.9182639100000000    0.3855556900000000    0.7596371100000000 Bi
   0.5849305800000000    0.7188890200000000    0.8979796600000000 Bi
   0.5849305800000000    0.7188890200000000    0.1020203400000000 Bi
   0.5849305800000000    0.7188890200000000    0.5135748400000000 Se
   0.9182639100000000    0.3855556900000000    0.3876326900000000 Se
   0.5849305800000000    0.7188890200000000    0.2971337600000000 Se
   0.2515972500000000    0.0522223600000000    0.8288083900000000 Se
   0.5849305800000000    0.7188890200000000    0.7028662400000000 Se
   0.2515972500000000    0.0522223600000000    0.6395169900000000 Se
   0.9182639100000000    0.3855556900000000    0.1711916100000000 Se
   0.2515972500000000    0.0522223600000000    0.0452494700000000 Se
   0.9182639100000000    0.3855556900000000    0.9547505300000000 Se
