Bi8 Se4
1.0
   2.1228892689877945   -3.6769520727296130    0.0000000000000000
   2.1228892689877945    3.6769520727296130    0.0000000000000000
   0.0000000000000000    0.0000000000000000   24.3288824699999999
Bi Se
8 4
direct
   0.3333333333333333    0.6666666666666666    0.5376601100000000 Bi
   0.6666666666666667    0.3333333333333334    0.4623398900000000 Bi
   0.3333333333333333    0.6666666666666666    0.2950157500000000 Bi
   0.6666666666666667    0.3333333333333334    0.7049842500000000 Bi
   0.3333333333333333    0.6666666666666666    0.0550310199999999 Bi
   0.6666666666666667    0.3333333333333334    0.9449689800000001 Bi
   0.0000000000000000    0.0000000000000000    0.1307976599999999 Bi
   0.0000000000000000    0.0000000000000000    0.8692023400000001 Bi
   0.3333333333333333    0.6666666666666666    0.7750182600000000 Se
   0.6666666666666667    0.3333333333333334    0.2249817400000000 Se
   0.0000000000000000    0.0000000000000000    0.3626130700000000 Se
   0.0000000000000000    0.0000000000000000    0.6373869300000000 Se
