Bi6 Se6
1.0
   2.1067869099999998   -3.6490619799999999   -0.0000000000000000
   2.1067869099999998    3.6490619799999999    0.0000000000000000
   0.0000000000000000    0.0000000000000000   22.7161436399999985
Bi Se
6 6
direct
   0.6666666700000000    0.3333333300000000    0.4601733100000000 Bi
   0.3333333300000000    0.6666666700000000    0.5398266900000001 Bi
   0.6666666700000000    0.3333333300000000    0.7143221600000000 Bi
   0.3333333300000000    0.6666666700000000    0.2856778400000000 Bi
   0.0000000000000000    0.0000000000000000    0.8788946900000000 Bi
   0.0000000000000000    0.0000000000000000    0.1211053100000000 Bi
   0.0000000000000000    0.0000000000000000    0.6452417000000000 Se
   0.0000000000000000    0.0000000000000000    0.3547583000000000 Se
   0.6666666700000000    0.3333333300000000    0.2046220000000000 Se
   0.3333333300000000    0.6666666700000000    0.7953780000000000 Se
   0.6666666700000000    0.3333333300000000    0.9460912500000001 Se
   0.3333333300000000    0.6666666700000000    0.0539087500000000 Se
