Bi6 Se9
1.0
   2.0713334500000000   -3.5876547799999998   -0.0000000000000000
   2.0713334500000000    3.5876547799999998    0.0000000000000000
  -0.0000000000000000   -0.0000000000000000   28.8697449500000012
Bi Se
6 9
direct
   0.1821706300000000    0.5251695199999999    0.5664645400000000 Bi
   0.1821706300000000    0.5251695199999999    0.7625209100000000 Bi
   0.8488373000000000    0.8585028500000000    0.8954499900000000 Bi
   0.8488373000000000    0.8585028500000000    0.1045500100000000 Bi
   0.5155039700000000    0.1918361800000000    0.2374790900000000 Bi
   0.5155039700000000    0.1918361800000000    0.4335354600000000 Bi
   0.5155039700000000    0.1918361800000000    0.8289854500000000 Se
   0.8488373000000000    0.8585028500000000    0.7079715400000000 Se
   0.5155039700000000    0.1918361800000000    0.6210139099999999 Se
   0.1821706300000000    0.5251695199999999    0.1710145500000000 Se
   0.5155039700000000    0.1918361800000000    0.0500006300000000 Se
   0.1821706300000000    0.5251695199999999    0.9499993700000000 Se
   0.8488373000000000    0.8585028500000000    0.5000000000000000 Se
   0.1821706300000000    0.5251695199999999    0.3789860900000000 Se
   0.8488373000000000    0.8585028500000000    0.2920284600000000 Se
