Bi128 Se192
1.0
  16.8642930000000000    0.0000000000000000    0.0000000000000000
   0.0000000000000000   23.1650869999999998    0.0000000000000000
   0.0000000000000000    0.0000000000000000   24.4724530000000016
Bi Se
128 192
direct
   0.0470514239760896    0.4947402096957374    0.4353507186222811 Bi
   0.0816008118454773    0.4780599356264019    0.9348143400254971 Bi
   0.0435736025222048    0.9922129798174296    0.4438214673453453 Bi
   0.0536678887161175    0.9940131025624899    0.9163037313832004 Bi
   0.2698725644769099    0.4775937167859547    0.4505719144705273 Bi
   0.2979632766105285    0.4627006149383338    0.9440369545300588 Bi
   0.3091745381795726    0.9900243413719967    0.4320204435574970 Bi
   0.3169596258793653    0.0163136879218282    0.9379157863741733 Bi
   0.5471649478575829    0.5119212373344422    0.4588138344774837 Bi
   0.5681465567515934    0.4807191097533974    0.9678065374157628 Bi
   0.5652558337310671    0.9858067876023950    0.4392489792502615 Bi
   0.5533863767665802    0.9647233355955021    0.9338949389339923 Bi
   0.7992448897798443    0.4805205350620959    0.4238234720483475 Bi
   0.7916074513174077    0.5117442468487168    0.9377809408807526 Bi
   0.7985036787489401    1.0177384613319174    0.4188137576564147 Bi
   0.8304172608955501    0.9987529941070370    0.9159523158548920 Bi
   0.2031297724725252    0.0264182042571219    0.0864478113411843 Bi
   0.1722254232655943    0.0198011775220184    0.5860221694980883 Bi
   0.1835238512518728    0.5210858910221231    0.0674709641898178 Bi
   0.1458750746325387    0.5343731279748701    0.5859690485461346 Bi
   0.4259621200841328    0.0110240466612536    0.1246450447774892 Bi
   0.4340514007910085    0.0199609869801050    0.5810941796476226 Bi
   0.4205619529973774    0.5571142469700201    0.0865503756407255 Bi
   0.4236868987036693    0.4819580431534749    0.6008306564119256 Bi
   0.7040437449705126    0.0024789028420226    0.0433585468526592 Bi
   0.6844579846899007    0.0005327845304445    0.5778292842160121 Bi
   0.6738438427273529    0.5469610366669463    0.0803090724088836 Bi
   0.6715253346226847    0.5151459176475358    0.5897528948160611 Bi
   0.9660470201745189    0.0247080013124924    0.0862635225001760 Bi
   0.9246400071440884    0.0154232531049851    0.5950568175572755 Bi
   0.9355150553895143    0.5314376760164985    0.0761693157608679 Bi
   0.9243375930434795    0.5110190175413544    0.5951221971904491 Bi
   0.1535724029462723    0.2642973022289966    0.3629341938055821 Bi
   0.2138690308570896    0.1941926658855199    0.8409986526483469 Bi
   0.2044005046639073    0.7218535376102841    0.3340355786974031 Bi
   0.1650848926782759    0.7235241551218867    0.8255200244944795 Bi
   0.4064125309018290    0.2113249132196223    0.3570998787902463 Bi
   0.4525206007746663    0.2351918643776300    0.8465232316515225 Bi
   0.4360034541619978    0.7656651580889811    0.3428450756448485 Bi
   0.4430093808261040    0.7309620723634667    0.8284580217602215 Bi
   0.6963766580668398    0.2308400568493440    0.3306493223217141 Bi
   0.7244478022292425    0.2255886196326394    0.8257570256647341 Bi
   0.6659039901643075    0.7379467212879451    0.3472038540639960 Bi
   0.6861598052168567    0.7067445937069005    0.8327649050955374 Bi
   0.9242664367845126    0.1969921373487611    0.3320876742515350 Bi
   0.9733879742245940    0.2317768113713538    0.8465845250576228 Bi
   0.9118793180360422    0.6888987725364468    0.3689854874785131 Bi
   0.9313702033046982    0.7088468953300284    0.8409046694256599 Bi
   0.0645090784416518    0.2585066915569970    0.1710527342722856 Bi
   0.0342906162742784    0.2889468966811996    0.6575352295088686 Bi
   0.0308616554515508    0.7779336205385287    0.1932041712369414 Bi
   0.0474880862186159    0.7617109316274099    0.6778437780634413 Bi
   0.2728267351616815    0.2871156926801096    0.1973169587862729 Bi
   0.3201705520652422    0.2829814539440323    0.6956679005574143 Bi
   0.3446898129675522    0.7669472599002112    0.1706518753963895 Bi
   0.2870728111756597    0.7635628564658531    0.6488642556592099 Bi
   0.5435733356862337    0.2757727609656722    0.2171032875208709 Bi
   0.5596837056851419    0.2646935882433768    0.6697407897769789 Bi
   0.5794882714620767    0.7666839325921807    0.1988407128619268 Bi
   0.5482002714255498    0.7795524359567482    0.6467435038081388 Bi
   0.7922182092068728    0.2591926376102106    0.1617340934315003 Bi
   0.8025299370688116    0.2797209438496821    0.6702433957070016 Bi
   0.8044392966844207    0.7593625700607125    0.1636967082948325 Bi
   0.8148221808053263    0.7630146176442161    0.6647147304767527 Bi
   0.0873134735028619    0.1231167402911114    0.2301448898481897 Bi
   0.0715167840122322    0.0805932652012056    0.7820752582505724 Bi
   0.0379102758710371    0.6128446657679292    0.2497126054343633 Bi
   0.0114286439401877    0.5916317085275786    0.7353533378938351 Bi
   0.3026340920428743    0.0912265082362954    0.2563576279010527 Bi
   0.3234573782606837    0.0816996715790448    0.7366159820595017 Bi
   0.3347486906210654    0.6031188227352654    0.2524871536171711 Bi
   0.2657093303585273    0.6143426096349217    0.7319290796063638 Bi
   0.5606520237759152    0.0690767964739351    0.2335098978430973 Bi
   0.5516418624842441    0.1076602906779500    0.7560133019767163 Bi
   0.5578377937337782    0.6165873670148531    0.2513879585344387 Bi
   0.5797669668096966    0.5730390738441863    0.7292076523755097 Bi
   0.8406993403162527    0.0659406114037042    0.2474459752767734 Bi
   0.8150119308292378    0.0988746556401882    0.7435094471322510 Bi
   0.7981004599481283    0.5731426780309524    0.2427386416882688 Bi
   0.7900360839318908    0.5613361175807369    0.7439957081539802 Bi
   0.1534342412101118    0.4540755663900594    0.2878044142121756 Bi
   0.2005390916773090    0.4455843399163578    0.7534634962829431 Bi
   0.1558322071372930    0.8891742992374689    0.2715183475886132 Bi
   0.1759907753025876    0.9201303668749443    0.7477223472448797 Bi
   0.4066704723405837    0.4370758460781952    0.3087512314356064 Bi
   0.4646764616814947    0.4192175060685073    0.7867458157954169 Bi
   0.4005883911053965    0.9222542527036485    0.2686065021761406 Bi
   0.4399650788799744    0.9324549482589900    0.7647905177302822 Bi
   0.6740869599454895    0.4046520524615340    0.2508289626708037 Bi
   0.6988137599364527    0.4037204781488626    0.7564668731818587 Bi
   0.6634431695417056    0.8998584809977188    0.3071490218001440 Bi
   0.7030949948509552    0.8873094238756799    0.7714755852222904 Bi
   0.9260512729469299    0.4264236089421983    0.2564896130355220 Bi
   0.9000673790475533    0.4222198690641655    0.7808085278578325 Bi
   0.9296980312189783    0.8930508225589656    0.3002118340977097 Bi
   0.9446586346667482    0.9105426627579686    0.7695632309519606 Bi
   0.1734196624785871    0.3442266372666763    0.5268862912924993 Bi
   0.2017878840221763    0.3369695956678255    0.0280889292135937 Bi
   0.1604953139749173    0.8043008860704904    0.4822320018348793 Bi
   0.1740974258452459    0.8367333133693822    0.9687259385072676 Bi
   0.4016415037381051    0.3544329447154678    0.5196373244643681 Bi
   0.4308268363221631    0.3495872905635968    0.0527544173851309 Bi
   0.4259057880457841    0.8477542087366218    0.5275441738513094 Bi
   0.4059405277173493    0.8463426016919341    0.0315587489329329 Bi
   0.6392619008694879    0.3366462642682931    0.5148850423780567 Bi
   0.7197218406961976    0.3318545706303628    0.0094628437942040 Bi
   0.7136439102427833    0.8342295455225357    0.5239237766643171 Bi
   0.6901623447837392    0.8345533086061797    0.0421163338223594 Bi
   0.8692448595384342    0.3281058258058777    0.5382051402856918 Bi
   0.9232287413412468    0.3400643390633500    0.0320968233139522 Bi
   0.9343528364930566    0.8556712953419947    0.5322964559376209 Bi
   0.9270000230664872    0.8364440850146603    0.0215121876013001 Bi
   0.0341365629736153    0.1749486198778360   -0.0045948397571751 Bi
   0.0397381022732468    0.1577546417157855    0.5110603338373966 Bi
   0.0611807444284797    0.6987627544847987    0.0046321470103549 Bi
   0.0395153238857982    0.6569282472368873    0.5119225277498745 Bi
   0.3121014322984070    0.1818223259856525    0.0363000799306878 Bi
   0.2517294973468499    0.1924961473272257    0.5229267372584187 Bi
   0.2926484970345333    0.6707248714412340   -0.0000252528833133 Bi
   0.2962656068653456    0.6684973814257638    0.4993410345910154 Bi
   0.5439593583911284    0.1921797228734777    0.9877105494900735 Bi
   0.5389321686951241    0.1801629322609494    0.5030022940487412 Bi
   0.5316072248033167    0.6877893443698270   -0.0020761302514300 Bi
   0.5374764302304282    0.6591427867290117    0.5006731446169290 Bi
   0.8018361635438852    0.1554226841453261    0.9948001534623439 Bi
   0.7648408385693962    0.1761197788724040    0.4954305152818150 Bi
   0.8171525482864890    0.6668267639141611    0.0128160425928696 Bi
   0.7727154645617221    0.6701550484140207    0.5026713096557995 Bi
   0.0637749830366443    0.1482575912622301    0.3628500175278710 Se
   0.0462044273068548    0.1423625130352414    0.8907729846288803 Se
   0.0833340597201436    0.6258340406837238    0.3568722759422604 Se
   0.0807949672126783    0.6562375526584469    0.8870586042192010 Se
   0.2882777238274976    0.1489128877435254    0.3507911528116940 Se
   0.3526557561588855    0.1455699259838739    0.8871239838523747 Se
   0.3452768521040283    0.6632006173773489    0.3570647372374154 Se
   0.3212705092351040    0.6384176325346846    0.8714941652967930 Se
   0.5640331320144876    0.1592495637939974    0.3244942384811199 Se
   0.5969950830432085    0.1549262474170721    0.8529712979732763 Se
   0.5419011636005138    0.6805241007728571    0.3755978201286156 Se
   0.5540232252843329    0.6582017153658866    0.8785102171817430 Se
   0.7927281623961349    0.1361954738179917    0.3798928534054187 Se
   0.8298302217590741    0.1485023561534649    0.8449459480012077 Se
   0.7668865810146918    0.6403990626065855    0.3899698979910187 Se
   0.8127230711658057    0.6470858494941116    0.8495838157294652 Se
   0.1645239441700876    0.3722709955719139    0.1286577197635235 Se
   0.1957052098181643    0.3711891951884316    0.6676568139695681 Se
   0.1447098908919573    0.8395478937765268    0.1628353316277694 Se
   0.1485529218449893    0.8453281440298498    0.6480715276069791 Se
   0.3992963120363243    0.3781729807446871    0.1839308875166702 Se
   0.4465102687672706    0.3502071889477471    0.6784321947620044 Se
   0.4486858713851805    0.8544064608952258    0.1609720120823196 Se
   0.4202921521821282    0.8532106959063008    0.6564564655615029 Se
   0.6354194628852807    0.3361045007083289    0.1450716852944819 Se
   0.6822224922206938    0.3613334152381988    0.6426817940972243 Se
   0.6957066032949024    0.8408990650456009    0.1743450074252875 Se
   0.6741996240221869    0.8527358433836230    0.6571102618932396 Se
   0.9279724919390335    0.3549388784941753    0.1414349431991962 Se
   0.9087840207709863    0.3649625835637915    0.6511075943224817 Se
   0.9064062157838457    0.8663986455133970    0.1968809583575459 Se
   0.9212660145314125    0.8461224427950563    0.6493300855455724 Se
   0.1366994750387698    0.3880231488014701    0.4057786932924133 Se
   0.1852968280377956    0.3942665961064597    0.8991824399458442 Se
   0.1642446558536430    0.9126320138577508    0.4106167861472652 Se
   0.1506490666403863    0.9182784420365009    0.8879289705858255 Se
   0.4264768170239926    0.4322150829824210    0.4186053600756737 Se
   0.4380100606648615    0.4033803110689807    0.9206269596268097 Se
   0.4478592728435162    0.8964395428344388    0.4153036886004031 Se
   0.4114669971637708    0.9029018539839717    0.8938703447504832 Se
   0.6393093383754658    0.4197532260509102    0.4093091934837917 Se
   0.6874465475665062    0.4190715968388118    0.9290364149437736 Se
   0.6665384668067614    0.8890404771628961    0.4268677112179968 Se
   0.7002428148040359    0.9196339301466903    0.9598669982122348 Se
   0.9343409771165622    0.4071860381961872    0.4049107786620327 Se
   0.8995159180405606    0.4165665339396308    0.9429459319014729 Se
   0.8977488709428850    0.8961459976386016    0.4335895547536652 Se
   0.9150932090660426    0.9002728977447830    0.9051360727917221 Se
   0.0660608778559528    0.1254707137512585    0.1099942862286833 Se
   0.0593798981077950    0.0924058692289824    0.6241670992278542 Se
   0.0553732670560219    0.6083594678491819    0.0837839999120644 Se
   0.0099425454716661    0.6004121633560021    0.6124845760251332 Se
   0.2708527419441775    0.1275833757930631    0.1438830018388430 Se
   0.3151042264268060    0.1165987418911917    0.6150711577625667 Se
   0.2901906412560550    0.6122100901239871    0.1061883743325608 Se
   0.2907557405460163    0.6075479017195144    0.6082308136417710 Se
   0.5723465549371088    0.0783519612941665    0.0976771719614703 Se
   0.5402799868337201    0.1017203173033626    0.5977905034693498 Se
   0.5431446192259587    0.6211157333447528    0.0950840522607194 Se
   0.5169401409237849    0.5940923079632725    0.6315549977764795 Se
   0.8057319687223177    0.0910369989113358    0.1041276900194680 Se
   0.7803944108418894    0.0921852786479930    0.6005691378792309 Se
   0.7945070688703048    0.6090242613809308    0.1243524709190370 Se
   0.7938903812925926    0.6064255230295488    0.6348158069810166 Se
   0.0420146874820071    0.4885412258542349    0.2016663388831516 Se
   0.0129753438225961    0.4790614427651405    0.6982340511594811 Se
   1.0036590327267201   -0.0010068168533103    0.1882030379218626 Se
   0.0561026187104316    0.9586365896229961    0.6930568014575408 Se
   0.2642055614190289    0.4883512848451638    0.2013165578456724 Se
   0.3612443166161783    0.4931170774364025    0.7087887756899564 Se
   0.2568705370572013    0.9744966638804337    0.1855036763172045 Se
   0.2957426083619396    0.9766637181202904    0.6795109587093701 Se
   0.4743786175916179    0.5189317873056122    0.2029714798103811 Se
   0.5611127605527252    0.4571146225351971    0.6966853710986798 Se
   0.5677255488860398    0.9663766857426437    0.2136034340325426 Se
   0.5851321487357933    0.9689408893651036    0.7104600425629584 Se
   0.7867866147724070    0.4584139917108880    0.1943352388908459 Se
   0.8198090486212496    0.4562901058821839    0.6891054198776069 Se
   0.7757218165030695    0.9546305610680419    0.2573906261051967 Se
   0.8203367908752534    0.9721224012670447    0.6961337304437769 Se
   0.1489436883004820   -0.0010932400124377    0.3057633821995694 Se
   0.2095658560960723    0.0585519061508381    0.8293733366246530 Se
   0.2314280236947970    0.5277036084518051    0.3601183747293334 Se
   0.1645903566784567    0.5409822117223216    0.8021713229973308 Se
   0.4505857434995941    0.0379703732604156    0.3110313461425382 Se
   0.4488163245266196    0.0449426328508932    0.8077531091795334 Se
   0.4777561680172421    0.5528017226958829    0.3381998527078589 Se
   0.4671123776134581    0.5261236446036227    0.8365814411820506 Se
   0.6764469758678884    0.0151219375951405    0.3483324699816565 Se
   0.7061369249217859    0.0215968107523188    0.8180340564960937 Se
   0.6891127899639788    0.5227996769448783    0.3101229778641316 Se
   0.6800937341399370    0.5066935427438715    0.8123991493619376 Se
   0.9335048910737023    0.0111985765475433    0.3360198505642241 Se
   0.9355328444542561    0.0327094821616686    0.8212294860674570 Se
   0.9155675841258213    0.5456184990801028    0.3116500009214442 Se
   0.9360902351494960    0.5210081878820486    0.8323685410694219 Se
   0.1925334195747192    0.2375406576284389    0.0898001520321645 Se
   0.1739432539508179    0.2432893949416206    0.6021341628483258 Se
   0.1910272787599219    0.7380460086335960    0.0619647732084724 Se
   0.1758733674752923    0.7197339686226950    0.5575983739758331 Se
   0.4553075542508660    0.2282771482792186    0.0862287895700525 Se
   0.3878051691820108    0.2352635239401432    0.5750996845310112 Se
   0.4099626352554477    0.7288899886281455    0.0651001352418574 Se
   0.4078226107670212    0.7359091722815460    0.5792349463292461 Se
   0.6798387575453059    0.2197483652878144    0.0528385936628420 Se
   0.6582072548193985    0.2294344933822178    0.5732772272562950 Se
   0.6905003370138315    0.7260969924265772    0.0878134284290994 Se
   0.6766782337095305    0.7017931769477059    0.5976270543864156 Se
   0.9049178640337902    0.2152549653709481    0.0874820354134504 Se
   0.9304273828733881    0.2007603079582649    0.5872276064847279 Se
   0.9016624651860590    0.7279748183117121    0.0730282330095802 Se
   0.9026467934350998    0.7132846079965078    0.5691950864100137 Se
   1.0088297208783079    0.2881003641384986    0.4762211618099746 Se
   0.0442215395569799    0.2984884105982421    0.9380955803654010 Se
   0.0621164492338932    0.7415685509836419    0.4360453772247513 Se
   0.0355120134594436    0.7903661229504557    0.9379443899636869 Se
   0.2706268208219579    0.2848394223600369    0.4682325878815662 Se
   0.3339499616141631    0.2856082517626634    0.9572232092957742 Se
   0.3186715268763416    0.7838131581375024    0.4510663479464032 Se
   0.3338734686357738    0.7707935653339010    0.9234464563074244 Se
   0.5248088372278635    0.2930794086808308    0.4462405137727714 Se
   0.5606816722171514    0.2819031070334422    0.9209170817490179 Se
   0.5541014971691965    0.7826346605130384    0.4807282702718848 Se
   0.5531142040760321    0.8031655568571792    0.9514738878035642 Se
   0.7827425673877938    0.2832003177885756    0.4551321438843911 Se
   0.8412152231937621    0.2496139988595769    0.9482743720051275 Se
   0.8175201889578175    0.7836491181751228    0.4515730401034992 Se
   0.7977268895885524    0.7697488897840099    0.9618610770240318 Se
   0.0353250503890083    0.4496464874058104    0.0594329469138218 Se
   0.0440854532117059    0.4269558754517089    0.5512156872872530 Se
   0.0811335524115953    0.9409979768260747    0.0279317320580818 Se
   0.0816446915385068    0.9121226266061510    0.5428961289659029 Se
   0.2984607774544714    0.4377535901332898    0.0578879444573864 Se
   0.2833537107069949    0.4270987628926237    0.5533160080029574 Se
   0.3021976669878779    0.9471192575275026    0.0334900632968832 Se
   0.3091294725488937    0.9394007456134311    0.5410736716911868 Se
   0.5441052287220105    0.4670304065769320    0.0849146589432616 Se
   0.5581923890909628    0.4382586605437744    0.5467290099607096 Se
   0.5465844313781787    0.9205620509864695    0.0525774837528547 Se
   0.5546600738020858    0.9246803174104203    0.5454377622055295 Se
   0.7739903475348773    0.4583837738230813    0.0634378580684168 Se
   0.7860928412474807    0.4437799003301823    0.5489437450344679 Se
   0.8506315681303687    0.9250774667930236    0.0681480520158727 Se
   0.8060343828229265    0.9283496323583849    0.5574063213033854 Se
   0.1575020073477139    0.0783765672885235    0.4804136307872365 Se
   0.1991551024404047    0.0846929692083608    0.9854794695080219 Se
   0.1653428341170306    0.5727714296950407    0.4767278539670706 Se
   0.1826255034824170    0.5531298026206420    0.9444782670539811 Se
   0.4448250513674069    0.0815153424634235    0.4772958395302669 Se
   0.4277777906254356    0.0867965658838234    1.0161792935101357 Se
   0.4081961811265968    0.5795920386571395    0.4711092917412079 Se
   0.4221748282006248    0.5863565286847402    0.9798609072821592 Se
   0.6905477745198093    0.0489417544600631    0.4836172328127466 Se
   0.6992288381137590    0.0710362106561482    0.9585062845968076 Se
   0.6582369032606347    0.5717397046684953    0.4886228609776061 Se
   0.6554855279139185    0.5733196685166778    0.9754845580865963 Se
   0.9215921473850104    0.0542268630374667    0.4756164002031181 Se
   0.9109898647989572    0.0651558096889513    0.9943833583008618 Se
   0.9081910519462630    0.5759486247558665    0.4787954848661881 Se
   0.9214498348670768    0.6026353365303572    0.9645825042548859 Se
   0.1705259746139373    0.2165327503410628    0.2543897009425250 Se
   0.2056996993588762    0.1719406449887281    0.7207083000629319 Se
   0.1608125522961443    0.6929134347736317    0.2206889517777396 Se
   0.1368649133408676    0.6655058105328938    0.7296121888557717 Se
   0.4045719556698879    0.1946817639838780    0.2332344861383532 Se
   0.4276995187405722    0.1948354435275810    0.7265802083673425 Se
   0.4571220388545194    0.7045689057848132    0.2336815193801781 Se
   0.4554978972436022    0.6702500189185563    0.7342296254486625 Se
   0.6961987674194228    0.1739557464213279    0.2071124623265187 Se
   0.6876718757199012    0.1953357654128387    0.7142111990162979 Se
   0.6909272745676323    0.6756374366303912    0.2435064437553522 Se
   0.7315159906199447    0.6761511407231063    0.7353288205313949 Se
   0.9283816404280926    0.1902462097379561    0.2181918584132126 Se
   0.9699784034824347    0.1786032575660087    0.7411802977004389 Se
   0.9115650445589387    0.6866496983154002    0.2142735752725728 Se
   0.9217759677206746    0.6826350360782155    0.7183137709979461 Se
   0.0141160972475988    0.2998637561775616    0.2980252939907577 Se
   0.0523442044086876    0.3367455516139439    0.7642102734858659 Se
   0.0573926223886172    0.8114366244340029    0.3021205107636737 Se
   0.0483974632082116    0.8157620992314859    0.7881923401793846 Se
   0.2784943311883872    0.3502857554560447    0.3018716595349064 Se
   0.3227914742705194    0.3190335525180631    0.8082230252929691 Se
   0.3052140993992455    0.8400529641870114    0.3158253077449980 Se
   0.2813257573264412    0.8038735188000805    0.7511997264843046 Se
   0.5966570908131162    0.3209061981938596    0.3107886242543810 Se
   0.5931407856825068    0.3099289029218841    0.7711119110127619 Se
   0.5729418956371310    0.8068866738985268    0.2890351858066700 Se
   0.5739262238861718    0.8235324132389402    0.7745770315709667 Se
   0.7978573427299916    0.3133038093057885    0.2643486535657051 Se
   0.8344731676566578    0.3073163506789334    0.7897737100567728 Se
   0.8084596253160450    0.8082205778031397    0.3191000101215845 Se
   0.8104401411906209    0.7991034093677265    0.8031928797656694 Se
