Nb4 Se6
1.0
   0.0000000000000000    6.6299693773678205    0.0000000000000000
   3.4795618799999999    0.0000000000000000    0.0000000000000000
   0.0000000000000000   -2.2618628846379574   -9.0217755204907739
Nb Se
4 6
direct
   0.8857180100000001    0.2500000000000000    0.3657486500000001 Nb
   0.1142819899999999    0.7500000000000000    0.6342513499999999 Nb
   0.6781310600000001    0.2500000000000000    0.9976723300000000 Nb
   0.3218689399999999    0.7500000000000000    0.0023276700000000 Nb
   0.2700829600000000    0.2500000000000000    0.4878283700000000 Se
   0.7299170400000000    0.7500000000000000    0.5121716300000000 Se
   0.0330588700000001    0.2500000000000000    0.8425102500000000 Se
   0.9669411299999999    0.7500000000000000    0.1574897500000000 Se
   0.5250134200000001    0.7500000000000000    0.7972987000000000 Se
   0.4749865799999999    0.2500000000000000    0.2027013000000000 Se
