Bi7
1.0
   4.9497733147771070   -0.0001057051524328    6.4365391268547096
   2.1886385546025444    4.4396080925514418    6.4365391268547096
  -0.0001692821671914   -0.0001056939985706    8.1196852805854469
Bi
7
direct
   0.5000000000000000    0.5000000000000000    0.5000000000000000 Bi
   0.6458297400000000    0.6458297400000000    0.6458297400000000 Bi
   0.2130020700000000    0.2130020700000000    0.2130020700000000 Bi
   0.7869979300000000    0.7869979300000000    0.7869979300000000 Bi
   0.3541702600000000    0.3541702600000000    0.3541702600000000 Bi
   0.9254192100000000    0.9254192100000000    0.9254192100000000 Bi
   0.0745807900000000    0.0745807900000000    0.0745807900000000 Bi
