Bi16 Se24
1.0
   9.8722449999999995    0.0000000000000000    0.0000000000000006
   0.0000000000000016    9.8722449999999995    0.0000000000000006
   0.0000000000000000    0.0000000000000000   13.6853940000000005
Bi Se
16 24
direct
   0.0000000000000000    0.0000000000000000    0.2439049999999990 Bi
   0.5000000000000000    0.5000000000000000    0.7439049999999990 Bi
   0.5000000000000000    0.5000000000000000    0.2560950000000010 Bi
   0.0000000000000000    0.0000000000000000    0.7560950000000010 Bi
   0.0000000000000000    0.5000000000000000    0.2772020000000000 Bi
   0.0000000000000000    0.5000000000000000    0.7772019999999999 Bi
   0.5000000000000000    0.0000000000000000    0.2227980000000000 Bi
   0.5000000000000000    0.0000000000000000    0.7227980000000001 Bi
   0.2630840000000000    0.7369160000000000    0.0000000000000000 Bi
   0.7369160000000000    0.7369160000000000    0.0000000000000000 Bi
   0.2630840000000000    0.2630840000000000    0.0000000000000000 Bi
   0.7369160000000000    0.2630840000000000    0.0000000000000000 Bi
   0.2369160000000000    0.7630840000000000    0.5000000000000000 Bi
   0.7630840000000000    0.7630840000000000    0.5000000000000000 Bi
   0.2369159999999999    0.2369160000000000    0.5000000000000000 Bi
   0.7630840000000000    0.2369159999999999    0.5000000000000000 Bi
   0.7342689999999999    0.5000000000000000    0.8630810000000000 Se
   0.2657310000000001    0.5000000000000000    0.8630810000000000 Se
   0.0000000000000000    0.2342689999999998    0.3630810000000000 Se
   0.0000000000000000    0.7657310000000001    0.3630810000000000 Se
   0.7657310000000001    0.0000000000000000    0.6369190000000000 Se
   0.2342689999999998    0.0000000000000000    0.6369190000000000 Se
   0.5000000000000000    0.2657310000000001    0.1369190000000000 Se
   0.5000000000000000    0.7342689999999999    0.1369190000000000 Se
   0.2798660000000000    0.5000000000000000    0.3986570000000000 Se
   0.7201340000000001    0.5000000000000000    0.3986570000000000 Se
   0.0000000000000000    0.7798659999999999    0.8986570000000000 Se
   0.0000000000000000    0.2201340000000000    0.8986570000000000 Se
   0.2201340000000000    0.0000000000000000    0.1013430000000000 Se
   0.7798659999999999    0.0000000000000000    0.1013430000000000 Se
   0.5000000000000000    0.7201340000000001    0.6013430000000000 Se
   0.5000000000000000    0.2798660000000000    0.6013430000000000 Se
   0.7961900000000001    0.5000000000000000    0.1287910000000000 Se
   0.2038099999999999    0.5000000000000000    0.1287910000000000 Se
   0.0000000000000000    0.2961900000000002    0.6287910000000000 Se
   0.0000000000000000    0.7038099999999999    0.6287910000000000 Se
   0.7038099999999999    0.0000000000000000    0.3712090000000000 Se
   0.2961900000000002    0.0000000000000000    0.3712090000000000 Se
   0.5000000000000000    0.2038099999999999    0.8712090000000000 Se
   0.5000000000000000    0.7961900000000001    0.8712090000000000 Se
