Bi128 Se192
1.0
  16.8642930000000000    0.0000000000000000    0.0000000000000000
   0.0000000000000000   23.1650869999999998    0.0000000000000000
   0.0000000000000000    0.0000000000000000   24.4724530000000016
Bi Se
128 192
direct
   0.2192691979438450    0.4530611087279751    0.3568600172610404 Bi
   0.1545745202600548    0.3429950424964948    0.0244760915466872 Bi
   0.1736248296919414    0.8221596577642899    0.4943966998322563 Bi
   0.1552576203461361    0.0526693467630836    0.7738660280602030 Bi
   0.2894956817934792    0.5117960489420998    0.6008878635909526 Bi
   0.4347303500953167    0.6434812871628758    0.8589453619545208 Bi
   0.1585225066950627    0.0246379821496030    0.4760985749977740 Bi
   0.1639422417530340    0.7962845121194668    0.7965936230422016 Bi
   0.5051744535036246    0.5430197607287208    0.4676114813664163 Bi
   0.5691955186025290    0.4469873132788148    0.0448328575807256 Bi
   0.6285706729597262    0.9884616448882753    0.4085777588376612 Bi
   0.7272644041466784    0.8686908881455960    0.9685011960182331 Bi
   0.8344020113976909    0.5563113145225831    0.2970131355446877 Bi
   0.6518684180831060    0.2861327479581666    0.9603818628234774 Bi
   0.9653413872730983    0.9331240586318541    0.4286533924490528 Bi
   0.9733523960951105    0.9094073335446572    0.9262169182631589 Bi
   0.3200270536096592    0.9088893126108269    0.0470324736143124 Bi
   0.0974206271202712    0.1854946627223977    0.4960148457533047 Bi
   0.3994985144055549    0.5284072535535913    0.1408636886543413 Bi
   0.1762902245590728    0.3165397134057817    0.4808018223592053 Bi
   0.4180869011229821    0.0420532415872213    0.1578456397484960 Bi
   0.6340022673941920    0.0504323596971598    0.8661861563285053 Bi
   0.5345572447063153    0.3685071418035253    0.1847644778396346 Bi
   0.4930767035416190    0.5020615722272056    0.7634338903419284 Bi
   0.4988237573908375    0.2034108484030300    0.1116810807645641 Bi
   0.5455271679636970    0.0074756464329273    0.5730279674048204 Bi
   0.8233727912578369    0.5515368882491140    0.1307927734093513 Bi
   0.6681809904512451    0.6022079692599471    0.5883717500652672 Bi
   0.0115684066921750    0.0496885679730018    0.0235839047274909 Bi
   0.9485662992216750    0.7886393865043546    0.5313607099378227 Bi
   0.0536145215218924    0.4976238595607260    0.0579341188233153 Bi
   0.0428974994682552    0.3955115730840986    0.5639851468914865 Bi
   0.2647030622629718    0.2067387012187781    0.4059825960233737 Bi
   0.3114865236271689    0.1585312414324194    0.7734574053528674 Bi
   0.0803769241912483    0.6803945955393995    0.3381504093602713 Bi
   0.1287560646627759    0.6295767419306476    0.8884397489699949 Bi
   0.3730805673264808    0.2300608670280410    0.3044619188767059 Bi
   0.4133342559928246    0.3934377626123313    0.9488995647473508 Bi
   0.3715696827610858    0.7637743816805006    0.4046794982096809 Bi
   0.2869791221013534    0.7389309610622227    0.9098556650614468 Bi
   0.6347138299838599    0.9554248598332483    0.2319796058041259 Bi
   0.5455283539013464    0.3148216106419113    0.7810741326176006 Bi
   0.6289501730075491    0.7252897431380250    0.4822932952409796 Bi
   0.6020886852475820    0.7944887062155217    0.8549980666016601 Bi
   0.0370432368555266    0.3805865266122247    0.1524134094771783 Bi
   0.9669424030998511    0.1808717575720739    0.7871585247298257 Bi
   0.0414038702956596    0.8601823943074336    0.2581437177548160 Bi
   0.9715853489974350    0.7272884405743868    0.7068682489654796 Bi
   0.7730415974153200    0.3970841983023850    0.0416590850128510 Bi
   0.0367928261208460    0.2122305864856023    0.6701902747550480 Bi
   0.2053474758769905    0.7603813445639122    0.2449558284982711 Bi
   0.3143209146093465    0.5989703384235078    0.7292730320086833 Bi
   0.2270050692311857    0.1669900915977566    0.1682038167567428 Bi
   0.3038621304788763    0.2673605326843798    0.5605690610581620 Bi
   0.4475598235870309    0.6900297849086430    0.0058042403840759 Bi
   0.2655035701763483    0.8960769281807576    0.6979357565831263 Bi
   0.6587053486321661    0.4513214217585283    0.2733497945628908 Bi
   0.3152708506665532    0.3844371488870298    0.7016501369928057 Bi
   0.5569584209667134    0.8054966510594155    0.1814174492438498 Bi
   0.5376128130601145    0.8372772353499041    0.6206325128094023 Bi
   0.8642342729695220    0.4229032250127099    0.2546761454603672 Bi
   0.6689459202351382    0.4316767728953489    0.6743745712781631 Bi
   0.8326764721177461    0.7403468849480256    0.1922716942188018 Bi
   0.6738379130391057    0.9134651641929944    0.7595846644388283 Bi
   0.0351901499813837    0.2181766034377510    0.2477900355963499 Bi
   0.8532762090886348    0.0507401504686773    0.9292202951620746 Bi
   0.3195248090151185    0.6480355545394672    0.2165165053131372 Bi
   0.9605442694810863    0.3589859170397245    0.7029250398396923 Bi
   0.3891387560688135    0.0368863712879645    0.3250368894364614 Bi
   0.1951762816265111    0.9639722052414481    0.9200753189719069 Bi
   0.4982396830984850    0.5889984354472746    0.3258067346170815 Bi
   0.2313272189945941    0.7266754491360210    0.6716899200909691 Bi
   0.7741504491175527    0.0830011991752934    0.4941678711161484 Bi
   0.6596481690634762    0.1876479030706856    0.7849805656997277 Bi
   0.6768561243569475    0.6953869847326712    0.2753357009205411 Bi
   0.6206545391496697    0.6654626421217412    0.7626125587001842 Bi
   0.6755515929425562    0.1100108106652049    0.2259761209879532 Bi
   0.8005731399472245    0.0914704097593072    0.6578130929498566 Bi
   0.8381792228111786    0.7192979676700546    0.4025624239629758 Bi
   0.0737000952248636    0.5773990833705913    0.6359395194261891 Bi
   0.2688443565348396    0.3445301111970786    0.2245373604354251 Bi
   0.1238895695182715    0.2948544937474226    0.7959398267104649 Bi
   0.1596592279320574    0.9934475963763919    0.3280169748410591 Bi
   0.2516310645219458    0.0596522689511160    0.6091216111437623 Bi
   0.4105069806365437    0.4327719554862885    0.2991322529049295 Bi
   0.2987228696749991    0.4918997282419013    0.8383385188235932 Bi
   0.3789622250989116    0.8843049024594641    0.2420174226098217 Bi
   0.4505952310007896    0.9092907788345453    0.8149203514661975 Bi
   0.7794693794753210    0.2475440735448134    0.2905000982124677 Bi
   0.8391516916837248    0.5093915684409043    0.6176986017707338 Bi
   0.8765739542120147    0.0803178507380525    0.3533944880801282 Bi
   0.9453346191269327    0.0059751987980878    0.8078552648563672 Bi
   0.1756338080701041    0.4679110421644435    0.2140978675084185 Bi
   0.8190144703961203    0.2646482614116666    0.8189657162688186 Bi
   0.2285568686454866    0.9329298007816678    0.1595602206284756 Bi
   0.8791889467290446    0.8276852143918131    0.7868438852451775 Bi
   0.9757894979647234    0.3080782731357754    0.3781999295289279 Bi
   0.3320429738738528    0.2948337729100694    0.0863861093123766 Bi
   0.0353876086000166    0.5765443488297713    0.4436212422187510 Bi
   0.0130569956297605    0.7479272579464088    0.0437720730324827 Bi
   0.4980594205757691    0.4137342544839137    0.5874646076549824 Bi
   0.4137517060454298    0.2109933798219709    0.9680803146296776 Bi
   0.3970365078453036    0.9031392802453105    0.4889293280081076 Bi
   0.4633405029193930    0.8221294398764831    0.0282999011173910 Bi
   0.7163181996422856    0.5145804114614376    0.4629899585464522 Bi
   0.7658310965066842    0.2764979902730346    0.1355752935760056 Bi
   0.4921451495179786    0.0097833433563189    0.7095733312880403 Bi
   0.6688984827291603    0.7137292426313789    0.0433197276954623 Bi
   0.9552549875645543    0.4350728318007181    0.4139715785744894 Bi
   0.0225415912780927    0.2896475199942051    0.9421572900763154 Bi
   0.7418870153643559    0.7960945711103957    0.6005323618355708 Bi
   0.9611728164352931    0.8857078758219211    0.0916405887060034 Bi
   0.1837883153476994    0.1721059800034423    0.9086175382582203 Bi
   0.8106595396557685    0.2271305952790076    0.5795046373160876 Bi
   0.2839988607882939    0.5260545751457787    0.9991397266142465 Bi
   0.1258297635127663    0.7004808572486692    0.5062140685283979 Bi
   0.9945866097084531    0.2218355579670390    0.0802575859477593 Bi
   0.4386451302761402    0.1240660136523554    0.5236091371796688 Bi
   0.2024324411346506    0.6621300407807664    0.0419132483368136 Bi
   0.2664374960752876    0.6121712385539497    0.4145354779106123 Bi
   0.5114723753910110    0.9649996134268781    0.9797587516053253 Bi
   0.5411142939701059    0.2262806092634144    0.6536287964267415 Bi
   0.5999243490373418    0.5936563070106321    0.1712435610766113 Bi
   0.4259182403911032    0.6780289666082412    0.5872112615764344 Bi
   0.6226884222184708    0.1176641382784360    1.0038184566132375 Bi
   0.6410348776554108    0.2416805082579660    0.4476053136152718 Bi
   0.0438795151388795    0.6799283766989522    0.1859960666795437 Bi
   0.8637480385332489    0.6327409864681277    0.5416212261190163 Bi
   0.9347382662291268    0.0573755669469318    0.4530318231686868 Se
   0.0611155178577602    0.0095581769237474    0.8809660396528292 Se
   0.9809186782985803    0.7459674120800842    0.2620971424482866 Se
   0.9810965689459973    0.5631880424191803    0.8736884692351844 Se
   0.5065471763328590    0.1798231968651791    0.3718707724150088 Se
   0.1666272045913813    0.0783480761371628    1.0000877312952647 Se
   0.4203899920382075    0.6500558361814053    0.4453987509956603 Se
   0.2867454923844124    0.6012366800090153    0.8276734661621373 Se
   0.7495481725797813    0.3385284069945431    0.3758532093207003 Se
   0.5175277730290858    0.2028673581066197    0.7869460409220114 Se
   0.6670899278137542    0.8168413095102989    0.3367353489247686 Se
   0.7559463061985462    0.6571570398159956    0.8238896198922110 Se
   0.8071195157721701    0.1940294892913634    0.4667452012268651 Se
   0.9735717945602582    0.1805104379707272    0.9216199128056349 Se
   0.8499259352289479    0.5993502204416500    0.4049540926690103 Se
   0.8142470010453446    0.4481917119499703    0.7637567022807235 Se
   0.5226575463317673    0.3334703642598019    0.2899084125322459 Se
   0.9083926613466690    0.2068353984597597    0.3674400763993703 Se
   0.0375520041071393    0.1429314726942316    0.1580998030724586 Se
   0.4327919350072962    0.9434283583739618    0.6172409443385179 Se
   0.6825545547625388    0.1899056109739627    0.0760258891905932 Se
   0.4623573606080017    0.2315471554240224    0.5326396990117828 Se
   0.4905897922907293    0.9195950785766529    0.1662252656078244 Se
   0.6367773614938971    0.8642186407501945    0.5152160267709983 Se
   0.8417548248242603    0.3912991995238352    0.9264702643417068 Se
   0.9570872612329493    0.5364408948690761    0.5373511188273606 Se
   0.7021521744196451    0.8404846482985365    0.2041899927236554 Se
   0.6276337822166633    0.9416757208811692    0.6489582388818971 Se
   0.2192917307591845    0.5720980024810614    0.1057572773763218 Se
   0.8762300322936750    0.2299326568469180    0.6891748857378538 Se
   0.0804646835773074    0.8168801610803362    0.1599843709986898 Se
   0.8758446025576050    0.8334481972806750    0.6369978522381879 Se
   0.1316592400286214    0.4227849435661520    0.4740105129632897 Se
   0.3065447214419247    0.6323006686743720    0.9638306384733887 Se
   0.3166661063111273    0.9936332205443478    0.2475195273640938 Se
   0.7821021610570926    0.5417980946931044    0.9019038671766986 Se
   0.3457233576290449    0.5044013001116724    0.3971959819475391 Se
   0.6183538201097432    0.4413322514178341    0.9329428480259007 Se
   0.2852992414209122    0.0860993960437101    0.3877102144194535 Se
   0.9824366784898720    0.7307462303077041    0.8053504076604008 Se
   0.8044274373079263    0.4584442095986948    0.3547670517540681 Se
   0.6301894778512209    0.5592813012098767    0.6963216968891512 Se
   0.5540926026368256    0.0656026027443799    0.3167475691954542 Se
   0.9168958342932015    0.6637531730401013    0.1313452313096689 Se
   0.0462199037931801    0.6961208477222641    0.5999970660889613 Se
   0.7172906685148319    0.1869321708137768    0.9257715195121632 Se
   0.0055751521869313    0.8972424752818758    0.5317243841473512 Se
   0.9411482592243861    0.7858593408261321    0.9503665202666850 Se
   0.1154201957947481    0.2158571647065258    1.0146060960868939 Se
   0.7924020295425370    0.9612784963855306    0.5267759631615188 Se
   0.0682667218839236    0.6045088455743767    0.9917845178822081 Se
   0.9820097409360712    0.6920371160272353    0.4655193331048587 Se
   0.3423250532945555   -0.0116976465488776    0.9570025530338131 Se
   0.5135756358123047    0.1058092292077297    0.6339576992956121 Se
   0.4918486651056169    0.4732596083062413    0.2256214364779861 Se
   0.3985082564682670    0.4062445351489507    0.8244535192283340 Se
   0.5145077828047697    0.0646870007438349    0.0668796871323034 Se
   0.8297175576823765    0.9397547265848819    0.7204508677573106 Se
   0.4802389284863587    0.6474009788955251    0.2005418091925644 Se
   0.4604230963017542    0.6450612510110582    0.7498063230522906 Se
   0.8513668494730255    0.9557399892346617    0.0203532110164845 Se
   0.9139843573638100    0.1300750564847868    0.5754715311946864 Se
   0.9729669663590403    0.5103671745329512    0.2500260190508896 Se
   0.7614371975154843    0.6905737068891648    0.6367485923867133 Se
   0.2209793200343471    0.7107160875329327    0.1412796665704088 Se
   0.2080099058999983    0.1753841891463650    0.6569182092207919 Se
   0.2798036063533763    0.0390357696476599    0.1111351608275639 Se
   0.9529483388363804    0.0674143809604514    0.7110402868073747 Se
   0.3620560909372245    0.6369844412844209    0.3213184227997087 Se
  -0.0147617217039576    0.4502853798908677    0.6547647675531342 Se
   0.0467669175339873    0.1016961429931172    0.3561371636917640 Se
   0.0985116897577621    0.9786667323977675    0.6727768564924815 Se
   0.6553135669547486    0.5053898567270652    0.1411954902926977 Se
   0.2719183069222054    0.2870764094259607    0.8736966416893311 Se
   0.8007451009063943    0.0616842060640653    0.1579306332716217 Se
   0.6022725055832462    0.9162279425067560    0.8821306143687353 Se
   0.8286917216156052    0.6588880931032117    0.2647053811892089 Se
   0.1272451800973809    0.3213124129428048    0.6534122263918537 Se
   0.8906035966049688    0.1344665789513331    0.0322743290180187 Se
   0.8392109885661971    0.9144019187150043    0.8597544349150449 Se
   0.7362478818412369    0.1340210809482391    0.3390910588325575 Se
   0.0242438268832260    0.8837437131144814    0.8146179706627692 Se
   0.3145830068298742    0.5114248006061882    0.2520691325875669 Se
   0.2284080334704811    0.4743647196317459    0.7261225509351269 Se
   0.3218124827409011    0.8739833353528955    0.3906502547987322 Se
   0.1375189579545374    0.7885875844109717    0.8919416455718598 Se
   0.5908418455490545    0.4716062581590995    0.3654758270452087 Se
   0.5896452344607627    0.5723785971535527    0.8425064704384150 Se
  -0.0066404206805468    0.9732102452280883    0.3076814571878021 Se
   0.5298330620797445    0.2809793030347782    0.8945690895800268 Se
   0.0972207966263394    0.4041797900435254    0.2731132020153435 Se
   0.9903587419881758    0.5431578996444089    0.7892057244935764 Se
   0.8783825091274208    0.1643840146164787    0.2343745434918191 Se
   0.8663037341678065    0.1125858063904530    0.8369124255749923 Se
   0.1921883117187302    0.4411466272498783    0.0716148070649068 Se
   0.8390153088540385    0.3595479697529304    0.5947217469372603 Se
   0.3474067961224345    0.1748359503247279    0.0711403961016903 Se
   0.2808863674273211    0.1412448828705025    0.5093604633748811 Se
   0.3051346415767325    0.8285226815681720    0.1577716790384683 Se
   0.1432090867965826    0.8188443237877759    0.6895753359910425 Se
   0.4574873076505490    0.0184563088409726    0.8058816171799369 Se
   0.3696792981478678    0.2834394707863606    0.6602770878750895 Se
   0.6137168039004066    0.8303400716776933    0.0675833354343351 Se
   0.4567532122455415    0.7881386329349854    0.5180150923162463 Se
   0.6461344095480314    0.3423462212768724    0.0987424513594939 Se
   0.6610831536193067    0.4593723304384741    0.5818256142937530 Se
   0.4866447706998449    0.7331852455378217    0.1087512559529688 Se
   0.5871446849269044    0.7088209942833368    0.5856830126509999 Se
   0.8325282299115652    0.2798038271990949    0.0137043474963462 Se
   0.6572762937645830    0.3025764591343862    0.5486863127288465 Se
   0.7068188390702177    0.5938246638141269    0.0378439791058134 Se
   0.1246230719544543    0.6348778228201777    0.7270542107078517 Se
   0.9281266638334617    0.3119837192927443    0.2759224831282749 Se
   0.2940959339356829    0.0930641874990584    0.8686664961620316 Se
   0.1380971025586427    0.5706432270252212    0.3606822740654563 Se
   0.5618705747107217    0.6937638524733364    0.9214932397663610 Se
   0.1274924480972905    0.2495350006671678    0.3960330417224624 Se
   0.4798392674984952    0.2959501080224737    0.0395294251867600 Se
   0.1959667090698673    0.8697787321066396    0.2689840695577186 Se
   0.3207018521321943    0.7638823027083819    0.0173508556743372 Se
   0.4121993136623041    0.3547592979037809    0.4376553506916531 Se
   0.5256395865513009    0.1272799018626608    0.9125525749298609 Se
   0.5390306015200281    0.8106639098743726    0.3904990643970181 Se
   0.8326468236765099    0.7969234046045240    0.0863566884774485 Se
   0.8814955954572183    0.3279042293257953    0.4603992905819453 Se
   0.0877184712101480    0.3893207912407149    0.9140971687635889 Se
   0.8264740182111400    0.8213265074290462    0.3388516059260589 Se
   0.8591347410769012    0.6315236372736266    0.9395911394742488 Se
   0.3573147122147368    0.2440167826695406    0.1988546060339762 Se
   0.0119532434594204    0.2673531940544838    0.5455358316552901 Se
   0.1416489858187355    0.8313588461808930    0.0192830690082437 Se
   0.1083010120851197    0.9058977417179569    0.3981701384818268 Se
   0.8736150397766452    0.4387723646364894    0.1444285131531359 Se
   0.3486330556519624    0.4153772442123788    0.5454541071138229 Se
   0.3087221029663088    0.0589490555334413    0.7154452395924511 Se
   0.2593034881450411    0.9188568987459448    0.5497119557242586 Se
   0.4721781102830697    0.5702935628948858    0.0591154470702222 Se
   0.4623318629485386    0.5315067454743425    0.5945051769023726 Se
   0.8860911038488243    0.9220729453768078    0.2018906727494788 Se
   0.4708777296504514    0.0149773234177795    0.4695034045013796 Se
   0.0089210380773152    0.3838716427009318    0.0422842777550742 Se
   0.6751068663240136    0.6134749245707560    0.4872539749080323 Se
   0.9260156948174465    0.0354994134060451    0.2163048387507374 Se
   0.7340716862545023    0.7990127557043063    0.7518535228160412 Se
   0.1068559470592689    0.0737061768859318    0.5657626556683957 Se
   0.2983196508741872    0.3126036176768945    0.9771680836408183 Se
   0.1744585438595024    0.5855276951906117    0.5373306876919939 Se
   0.4159184141309689    0.4259310573709480    0.0664310193996491 Se
   0.6311382279707782    0.1017742778173033    0.4499181181387906 Se
   0.7266239978159772    1.0042051644356009    0.1165690255897110 Se
   0.3019415044555974    0.7682682132814783    0.5408366705209322 Se
   0.6700547719373708    0.6823717087701852    0.1510294043674330 Se
   0.6972720409921720    0.1500633259007402    0.5804485557700325 Se
   0.6627256772637904    0.0126183855903498    0.9772620668635056 Se
   0.5521879867718142    0.6890023767232130    0.3339538541559360 Se
   0.8652541793480462    0.5010125798361992    0.0281421318900888 Se
   0.8002885149113573    0.9481812004418547    0.4161331926962940 Se
   0.0521854073574267    0.9310260738498414    0.0156103681147125 Se
   0.0092848244512830    0.7970874445669037    0.4000207907233492 Se
   0.1617180156914968    0.4988930108486103    0.9113880002139547 Se
   0.2124221869247646    0.1603969801624315    0.2870807433974845 Se
   0.2467906600057292    0.8906420252166547    0.8056854782804158 Se
   0.2318104885867436    0.7183180447368923    0.3778105120888372 Se
   0.2989001673535914    0.6388190987584031    0.6309257188071828 Se
   0.4381743130293099    0.1320443994015650    0.2251523376099650 Se
   0.6463063705072012    0.0553177287872910    0.7545136566407952 Se
   0.6541394886817964    0.5814051119255456    0.2844676011840742 Se
   0.4012845365056217    0.7809597261603206    0.6545563699723930 Se
   0.6145647493197610    0.2196490779421636    0.1982457582000464 Se
   0.6684834045518540    0.2846943764985644    0.7150897378370692 Se
   0.7560174624575130    0.0089943974740954    0.2841864687614274 Se
   0.8416836685652935    0.6052858769751222    0.7939007994008609 Se
   0.9542054327447939    0.2869641715569642    0.1712460128128553 Se
   0.9605620585458282    0.3063429030074439    0.8219772656218810 Se
   0.1583173394817085    0.6016899483261169    0.2252790106492389 Se
   0.9341571567808979    0.6051779559472408    0.6789102833295868 Se
   0.1616308492742625    0.2847414300667206    0.1418533728515078 Se
   0.1538896412674993    0.1705173824730294    0.8070788817124298 Se
   0.0632081048402088    0.9923338513686567    0.1674143576861706 Se
   0.3190883839601221    0.7500166090461909    0.7949264423962731 Se
   0.2973709007546299    0.3375778385809646    0.3458676578110090 Se
   0.4031114734545942    0.5057524713807464    0.9313083571965588 Se
   0.4302700385957478    0.7743549592539842    0.2636396931684780 Se
   0.4415471197043362    0.8278622048775384    0.9132799233489181 Se
   0.5434778677054531    0.3811416723796461    0.4527171836840385 Se
   0.4563298325046891    0.4170521785650967    0.6880103110219478 Se
   0.4946771263995473    0.9274689967708734    0.3255415384800208 Se
   0.5340010399487247    0.8321833628339060    0.7368121209590227 Se
   0.7105426832894802    0.3600059865952587    0.2272179253955457 Se
   0.6012110913869914    0.4235149213987412    0.7947752519945588 Se
   0.7895142713661344    0.7650651171739610    0.4987730490278192 Se
   0.7389043821759975    0.7620821799633216    0.9172149600205586 Se
