Bi17 Se18
1.0
   0.0000000000000000    7.2614886620379577    0.0034728579860831
   4.1926971725903339    0.0000000000000000    0.0000000000000000
   0.0000000000000000   -2.4064412941864770  -32.2862295000754358
Bi Se
17 18
direct
   0.9638612512854420    0.0000000000000000    0.8906217660465494 Bi
   0.1764616438429374    0.0000000000000000    0.5281944315506417 Bi
   0.8235383561570628    1.0000000000000000    0.4718055684493512 Bi
   0.1167382227758677    0.0000000000000000    0.3484300180167715 Bi
   0.8832617772241323    0.0000000000000000    0.6515699819832286 Bi
   0.3526036831231485    0.0000000000000000    0.0587360353388278 Bi
   0.6473963168768513    0.0000000000000000    0.9412639646611721 Bi
   0.4117332772628944    0.0000000000000000    0.2318977542489725 Bi
   0.5882667227371057    0.0000000000000000    0.7681022457510277 Bi
   0.6764616438429372    0.5000000000000000    0.5281944315506417 Bi
   0.3235383561570627    0.5000000000000000    0.4718055684493512 Bi
   0.6167382227758677    0.5000000000000000    0.3484300180167715 Bi
   0.3832617772241322    0.5000000000000000    0.6515699819832286 Bi
   0.8526036831231487    0.5000000000000000    0.0587360353388278 Bi
   0.1473963168768515    0.5000000000000000    0.9412639646611721 Bi
   0.9117332772628943    0.5000000000000000    0.2318977542489725 Bi
   0.0882667227371056    0.5000000000000000    0.7681022457510277 Bi
   0.0000000000000000    0.0000000000000000    1.0000000000000000 Se
   0.0622369310591023    0.0000000000000000    0.1844016023594606 Se
   0.9377630689408978    0.0000000000000000    0.8155983976405392 Se
   0.2352606279995763    0.0000000000000000    0.7088033068967537 Se
   0.7647393720004237    0.0000000000000000    0.2911966931032461 Se
   0.2981068447541556    0.0000000000000000    0.8933242893627791 Se
   0.7018931552458445    0.0000000000000000    0.1066757106372279 Se
   0.4668462441881685    0.0000000000000000    0.3974255315120692 Se
   0.5331537558118314    0.0000000000000000    0.6025744684879307 Se
   0.5000000000000000    0.5000000000000000    1.0000000000000000 Se
   0.5622369310591022    0.5000000000000000    0.1844016023594606 Se
   0.4377630689408977    0.5000000000000000    0.8155983976405392 Se
   0.7352606279995763    0.5000000000000000    0.7088033068967537 Se
   0.2647393720004236    0.5000000000000000    0.2911966931032461 Se
   0.7981068447541555    0.5000000000000000    0.8933242893627791 Se
   0.2018931552458445    0.5000000000000000    0.1066757106372279 Se
   0.9668462441881686    0.5000000000000000    0.3974255315120692 Se
   0.0331537558118315    0.5000000000000000    0.6025744684879307 Se
