Bi8 Se15
1.0
   0.0000000000000000   16.7584379519969495   -0.1157339735988555
   4.1361592107880663    0.0000000000000000    0.0000000000000000
   0.0000000000000000   -7.3753689289325717   -9.1933121633474020
Bi Se
8 15
direct
   0.2942329509878008    0.0000000000000000    0.8925326971698826 Bi
   0.7057670490121992    0.0000000000000000    0.1074673028301172 Bi
   0.1034728066090390    0.5000000000000000    0.3769626974395606 Bi
   0.8965271933909610    0.5000000000000000    0.6230373025604392 Bi
   0.7942329509878008    0.5000000000000000    0.8925326971698826 Bi
   0.2057670490121993    0.5000000000000000    0.1074673028301172 Bi
   0.6034728066090390    0.0000000000000000    0.3769626974395606 Bi
   0.3965271933909610    0.0000000000000000    0.6230373025604392 Bi
   0.9617370464951382    0.0000000000000000    0.0586679892072835 Se
   0.0382629535048619    0.0000000000000000    0.9413320107927164 Se
   0.0840453428107744    1.0000000000000000    0.5365848579043128 Se
   0.9159546571892253    1.0000000000000000    0.4634151420956873 Se
   0.8500734870559979    0.5000000000000000    0.1693639554889081 Se
   0.1499265129440022    0.5000000000000000    0.8306360445110920 Se
   0.7130478688518029    0.5000000000000000    0.3422126450668338 Se
   0.4617370464951379    0.5000000000000000    0.0586679892072835 Se
   0.5382629535048618    0.5000000000000000    0.9413320107927164 Se
   0.5840453428107747    0.5000000000000000    0.5365848579043128 Se
   0.4159546571892255    0.5000000000000000    0.4634151420956873 Se
   0.3500734870559978    0.0000000000000000    0.1693639554889081 Se
   0.6499265129440021    0.0000000000000000    0.8306360445110920 Se
   0.7869521311481971    0.0000000000000000    0.6577873549331660 Se
   0.2130478688518031    0.0000000000000000    0.3422126450668338 Se
