Bi144 Se216                             
    1.000000000000000     
    16.8710670000000000    0.0000000000000000    0.0000000000000000
     0.0000000000000000   22.0584039999999995    0.0000000000000000
     0.0000000000000000    0.0000000000000000   29.9286870000000000
  Bi              Se            
   144   216
Direct
  0.1231149162053597  0.5986561856424402  0.6948450495005005
  0.2485444459440558  0.7611792766149321  0.6956436144358733
  0.1314937579229607  0.2655504904162598  0.6984268972441043
  0.2458641175451461  0.4289526114400672  0.6957505352640396
  0.3682292293664631  0.5940048971811365  0.6998335743896789
  0.5028158562822398  0.7765657025775781  0.7050526473145950
  0.1129555113496963  0.9319803916910772  0.7004450278757659
  0.2456418435182570  0.0950603679214481  0.6925061563843400
  0.3728039252052042  0.2635136250111287  0.6967829895110356
  0.4914010477227109  0.4377954996200089  0.7011968149488155
  0.6186567808663170  0.6041642903992539  0.6955099634006672
  0.7470956045637180  0.7640035969964103  0.6993457481111705
  0.3730036754640338  0.9321617284731900  0.6989447950055379
  0.5053687475723976  0.1009284261907624  0.6943739296013902
  0.6209328669016614  0.2673620448696141  0.7038999071359200
  0.7333205422039981  0.4304332262660537  0.7023562376792540
  0.8620201674262802  0.5983796470497111  0.7016645935720476
  0.9971094300081873  0.7640715982897035  0.7005352423245270
  0.6247856167010681  0.9417635110862932  0.6965825129582228
  0.7438237308879181  0.1099975320063962  0.6953128281237326
  0.8694055924263679  0.2627261700347887  0.6995896612504282
  0.9905538280418185  0.4377374718497293  0.6993257004558870
  0.8725767018766533  0.9297680829492450  0.7038130339630371
  0.9976949294315531  0.0956488057794189  0.7023963329898137
  0.1195395643915091  0.6041733572383592  0.9659428093186975
  0.2439573027598101  0.7714610721609745  0.9624144219891804
  0.1146264193011604  0.2617084173451545  0.9677537808457828
  0.2517363009701725  0.4260888503084814  0.9516956089654016
  0.3573579548940202  0.6115764313682917  0.9553743537095372
  0.4984989983146875  0.7719914822486729  0.9486717542937981
  0.1156957055531791  0.9436403467812085  0.9647767040364954
  0.2358368916441407  0.0998707794090663  0.9599184889066450
  0.3651328039892192  0.2638450179804508  0.9650172758998750
  0.4960788787099233  0.4423057987332157  0.9626984304389978
  0.6299957198913404  0.6124785818593210  0.9588058440385296
  0.7406704033597862  0.7766065033535483  0.9546392730158857
  0.3648062093523805  0.9428379315203372  0.9567910546827534
  0.4835141725179568  0.1009860006190806  0.9635604796160919
  0.6180581228205639  0.2701378576618723  0.9598683697684436
  0.7521575250693999  0.4289127173479983  0.9665342151495011
  0.8772948385540786  0.5998711420826268  0.9705571113092901
  0.9890378006322891  0.7688724895962551  0.9632530822351129
  0.6276247969378588  0.9475526878553850  0.9651342205556830
  0.7494783821319686  0.1038833090553624  0.9594774404904598
  0.8616645289832618  0.2692701611594401  0.9645762274836827
  0.9903937907424591  0.4314473522200402  0.9649404265546266
  0.8703658162225310  0.9347548444574656  0.9585051292093070
  0.0032382658429384  0.1028927568830440  0.9629690737852954
  0.1182468186511230  0.7125130177142438  0.0742013841101681
  0.2511702431150340  0.8791524536407991  0.0753040051506417
  0.1162528724472480  0.3826133567958934  0.0715774801614231
  0.2530800215540623  0.5532267883025455  0.0724565698455137
  0.3704371513668931  0.7140135795862648  0.0663948271436041
  0.4891563764165028  0.8882283595857601  0.0742959422175815
  0.1295264846023088  0.0401576197443845  0.0761206129757710
  0.2506225599127774  0.2149031271709418  0.0767494410964318
  0.3687164540334038  0.3842385877056174  0.0695065573708575
  0.5094443641294291  0.5529865170662376  0.0716950930724067
  0.6187871816287611  0.7152738702219779  0.0705416846385560
  0.7535326603824188  0.8860568516199123  0.0729774747552412
  0.3726314405603404  0.0503232237472844  0.0788113424421226
  0.4886584825962714  0.2152975346720467  0.0718798656285884
  0.6232860079329896  0.3827579728796309  0.0711548087625786
  0.7480854648967963  0.5535078603148236  0.0756040517246888
  0.8625417704760494  0.7174544450269380  0.0730710304798876
  0.9888111996710123  0.8889854406510977  0.0782155929526738
  0.6198066784987546  0.0462825868997570  0.0739738432227242
  0.7417017548445486  0.2094593969717877  0.0705991545836966
  0.8663352472016115  0.3794227361145417  0.0749882545799636
  0.9974525025595611  0.5486480345540841  0.0783281939498366
  0.8704725077554372  0.0505140807104638  0.0740313131678647
  0.9947088705177904  0.2070539645569980  0.0723085513240207
  0.1283730305854363  0.7088273476177136  0.2738576536952664
  0.2457935825872752  0.8761286627989975  0.2725241504914635
  0.1085876785386475  0.3774248581175712  0.2774695729217953
  0.2424316138392442  0.5417753705118500  0.2682108974576778
  0.3638341309414486  0.7174453781878327  0.2759626574998109
  0.4948768207725109  0.8858891150964467  0.2739876293270100
  0.1230621631696422  0.0403958509418914  0.2782888537676271
  0.2481431672341756  0.2124655074773329  0.2720476845509481
  0.3662815161601785  0.3816386715920146  0.2672422615800016
  0.4895434295886574  0.5504432686970446  0.2729471560179064
  0.6219108726199707  0.7149519974337224  0.2721004767098520
  0.7477950268349929  0.8837538744870201  0.2735713063523306
  0.3656200286561599  0.0401150056005832  0.2758443763336516
  0.4956716726926658  0.2115171161068616  0.2693121819878002
  0.6147269760709264  0.3746426985379330  0.2704274998766252
  0.7482988479626087  0.5480541565926558  0.2756649498188821
  0.8738332910419970  0.7078345287356242  0.2741072470035206
  0.9968253934383640  0.8796964639871518  0.2764875719405921
  0.6159420740845860  0.0518269590129918  0.2684471256624121
  0.7382402073324670  0.2089049597604600  0.2715521733379092
  0.8637687231044708  0.3737895089780778  0.2744380333156613
  0.9854859802287521  0.5414081635280610  0.2793356755009029
  0.8719839711382775  0.0480211532983077  0.2709604333795212
  0.9936781710368408  0.2083287621352810  0.2726614769301463
  0.9968782650202286  0.6499155605274041  0.3844772742619824
  0.1174389266547280  0.8212606859499019  0.3833746532215088
  0.9904589911236812  0.3237555173982685  0.3854362204396082
  0.1186943303585934  0.4812496860606927  0.3800634488242025
  0.2374935740578792  0.6494803522503290  0.3803708462051816
  0.3752886524604548  0.8167272663969669  0.3868763103439861
  0.9973784112172623  0.9905839062517856  0.3843603296061744
  0.1135766931635089  0.1469090873482983  0.3883631781106871
  0.2390755723985905  0.3186155263091592  0.3785130968157731
  0.3575582978835925  0.4900445199933756  0.3858639037522735
  0.4910673403170023  0.6625003332063386  0.3820080713864940
  0.6150529779770295  0.8229108506671636  0.3780586832960608
  0.2481295344271928  0.9884464442667777  0.3890381158384955
  0.3683264372075570  0.1573731263603690  0.3876481450723190
  0.4914567644121135  0.3207362599760160  0.3829770413917615
  0.6067843841767697  0.4885348912822494  0.3788906609902369
  0.7412453521760085  0.6512030516804401  0.3838123603618158
  0.8659203356847556  0.8248692879140336  0.3840997100875185
  0.4959046158728455  0.9845997924419194  0.3804510368263081
  0.6254316932058899  0.1549323332730665  0.3858839514075569
  0.7379142054263639  0.3127388545426939  0.3897331012215801
  0.8553460193122362  0.4834891953198408  0.3839794241558252
  0.7454300311888957  0.9888340063043515  0.3837822888788907
  0.8680008205764338  0.1576274511972855  0.3850051958510576
  0.9899848065329806  0.6567791577305400  0.5897919945502466
  0.1146779868753995  0.8194382512896254  0.5872292359501117
  0.9978621980459224  0.3228569936428798  0.5916530852155333
  0.1161775956434781  0.4925696346843580  0.5900359076895043
  0.2389546553279658  0.6508086441793353  0.5865309092911417
  0.3761001008412777  0.8220721680498713  0.5880110945060864
  0.9879182508136566  0.9998411489788666  0.5840049047256883
  0.1245226517089861  0.1623063935178664  0.5878573958155968
  0.2468000393810286  0.3259515058297069  0.5892239776506045
  0.3740919290996843  0.4825825114092552  0.5842555004167096
  0.5015900891152896  0.6526537459373785  0.5838445234834424
  0.6195103131295738  0.8184544992466343  0.5857624158386869
  0.2456418435182570  0.9872712912502664  0.5840784127950585
  0.3742478172838730  0.1613344283657128  0.5891471283053633
  0.5047831296028846  0.3219811369852508  0.5868750607068094
  0.6330186466570282  0.4836795989410660  0.5886860322338876
  0.7492116532996960  0.6551289930132782  0.5845395088665271
  0.8678467105844589  0.8230649869319677  0.5829457202716597
  0.5079062278633586  0.9851755367251442  0.5852111053184501
  0.6252064555253085  0.1558032031691852  0.5891738585124031
  0.7447839546840740  0.3204746816678110  0.5870220768455354
  0.8707510912024716  0.4846497507253957  0.5903265986910853
  0.7553582710565934  0.9848355302586711  0.5885390160951616
  0.8713082580965406  0.1583718386878772  0.5875366333310907
  0.9860787109671278  0.6598573496069804  0.0231655000434898
  0.1201862336270736  0.8226660460113067  0.0200113356125513
  0.9936241732665749  0.3205603632973606  0.0209256089316554
  0.1273476064080583  0.4954302224222573  0.0181641780676856
  0.2343438029141822  0.6608365682304154  0.0150951827589338
  0.3755411557549948  0.8237767338017719  0.0128070436233969
  0.0016438201567226  0.9949336769786257  0.0181273237947224
  0.1220177716086397  0.1517879534711568  0.0201819077462346
  0.2457609823966678  0.3174463574064532  0.0150140231678080
  0.3655097807388259  0.4953667545485132  0.0104015588789466
  0.5016084637681786  0.6571418312947728  0.0114977646697270
  0.6219760730011927  0.8307763335914942  0.0137763143434952
  0.2490618998786474  0.9936167639326925  0.0244054475226392
  0.3628626452612593  0.1581506078136954  0.0162355268041026
  0.4975666328632329  0.3272924913334592  0.0153351866054123
  0.6209269395942769  0.4947864768457393  0.0167272623753902
  0.7505393701536462  0.6547844531272560  0.0156740253924283
  0.8737562360460061  0.8250098239201691  0.0183562680180387
  0.5018182904495632  0.9974973710700041  0.0179161217463388
  0.6178980855212046  0.1620212414279862  0.0159961912127997
  0.7453766854224426  0.3254152022965968  0.0181908080364508
  0.8692337005122468  0.4931181784502598  0.0272689543647573
  0.7529814207957344  0.9954350278469803  0.0150554215759584
  0.8683683136342211  0.1566228454243586  0.0123715417251660
  0.1144071089279635  0.6997197077358805  0.9021077336269414
  0.2308170550208857  0.8871992733472496  0.9013626291056482
  0.1000393158298749  0.3648119782374124  0.8995583401303264
  0.2466992751555068  0.5460957193457858  0.8903030059420942
  0.3626142910818828  0.7119055394941540  0.8941454732043539
  0.5049004902890815  0.9036147855483989  0.8866409675773639
  0.1134415505551587  0.0434349194075878  0.9002265953063713
  0.2299599663732010  0.2044214078226148  0.9007478343436830
  0.3683857102813946  0.3696305498802204  0.8970390181166294
  0.5045211426165253  0.5594058391531860  0.8924313986778003
  0.6252657285991461  0.7108084519623432  0.8965445092863575
  0.7279326197922131  0.8837130737110428  0.9040189434304295
  0.3718620760619373  0.0565353685606595  0.9010619142764256
  0.4824662245725193  0.2082566807643929  0.9094117627011187
  0.6170504805653394  0.3861013697999169  0.9064447097194730
  0.7618427453343628  0.5398486672018521  0.8934972656835924
  0.8601945567520985  0.7122047451846498  0.8964041756993879
  0.9984964199359752  0.8947791508397458  0.8995149035438814
  0.6299838652765715  0.0460735962583669  0.8982886552958362
  0.7453707581150582  0.2109422785075452  0.8981316153294685
  0.8690855178276493  0.3807940955293034  0.9103306135681777
  0.9845814731219988  0.5470794713887699  0.9096356281850930
  0.8841112420453285  0.0484287077161127  0.8999759996153500
  0.9893505846429278  0.2259746444031023  0.8934805593041872
  0.9981393589391843  0.6517198615094699  0.7658204317483097
  0.1328760060048353  0.8141749511886687  0.7587770221927883
  0.9988579856863851  0.3284675536815840  0.7646944217766745
  0.1172788893553687  0.4953712879680694  0.7556161752100934
  0.2408739174588064  0.6506273073972153  0.7477274228568760
  0.3620511968804365  0.8264967855335286  0.7701173125302816
  0.9963775260924521  0.9805362164914584  0.7601603104072012
  0.1302905145240700  0.1458568806700598  0.7522180976398971
  0.2512348507655133  0.3221067127068693  0.7559168900393161
  0.3643509921453116  0.4826958468980820  0.7504806341821819
  0.5081308728132043  0.6463976269543323  0.7592214118848588
  0.6233274990846738  0.8348700114477907  0.7574171229095370
  0.2516550968590181  0.9851387706925649  0.7532405280592513
  0.3762915528697732  0.1515145882721143  0.7589674749179594
  0.4774647626021533  0.3227187243465153  0.7657435824030614
  0.6197059142732328  0.4947774100066340  0.7661044401981272
  0.7422292852017023  0.6530481534384833  0.7516133267055807
  0.8703302523782313  0.8124250512412416  0.7682562218649949
  0.5075251019985885  0.9933463001221696  0.7648848745018455
  0.6266171546826271  0.1536339619131084  0.7559970806604355
  0.7451218112049460  0.3046326470401013  0.7638991981171799
  0.8651616403396432  0.4880679490683022  0.7678819989664092
  0.7477298264537779  0.9948317203728791  0.7666891634771673
  0.8679830386542804  0.1463056892058034  0.7538419577176896
  0.1167608426900344  0.5962761403771566  0.3254222278444772
  0.2445790773043583  0.7630606457294036  0.3281173009694669
  0.1138979532237059  0.2621925865534038  0.3267864707863737
  0.2394021670354363  0.4303693050503554  0.3251408924153623
  0.3646064590935509  0.6021378518590907  0.3312059763931501
  0.4923867589406186  0.7729843011307622  0.3281136255659973
  0.1212395161491600  0.9357204628222391  0.3294995868011199
  0.2446822124528367  0.0963034315628661  0.3323106021991578
  0.3675369198640510  0.2678026932501538  0.3258418920950348
  0.4943771487600657  0.4331981588513827  0.3269371623285693
  0.6103466959143731  0.6001204801580400  0.3263868541910995
  0.7482040110444714  0.7676031321214367  0.3282913814428312
  0.3760254167682433  0.9288296651017873  0.3306787230592505
  0.4982666478652504  0.1039313633026211  0.3313082194350869
  0.6195873681255577  0.2655192098213419  0.3297140967126282
  0.7339666187088199  0.4290945074720725  0.3282813576151895
  0.8702591246896247  0.6035250782422850  0.3307492239803267
  0.9929826015153651  0.7685234162906767  0.3321569035086611
  0.6261311154771647  0.9296094132648918  0.3276538660048800
  0.7470659680268028  0.1044159858528317  0.3277634598537489
  0.8620675858853488  0.2673878853610603  0.3307164794766990
  0.9895284038644405  0.4299821510205390  0.3286044589928068
  0.8708222188910781  0.9360151350931858  0.3277774932124515
  0.9972101942337162  0.0960482000420342  0.3245915866606524
  0.9967300823356311  0.6541769749071591  0.2260443299767871
  0.1184370852181402  0.8214465561515709  0.2216288339010646
  0.9875605378130530  0.3170016289483115  0.2202428726659491
  0.1103670562152317  0.4773781457624935  0.2133317776352825
  0.2493001776354760  0.6548887217769703  0.2168852245339039
  0.3729046894307260  0.8156573793824791  0.2120076300039457
  0.0100496903959879  0.9899673611925834  0.2196878867422427
  0.1237918147085750  0.1544862447890623  0.2191091777597833
  0.2458291464315820  0.3252315988046988  0.2155076164884875
  0.3768013013047735  0.4919666898838173  0.2142857118990875
  0.5014158262782047  0.6638966264286381  0.2177432641799513
  0.6170504805653394  0.8224801758096376  0.2145637060523242
  0.2428903874307409  0.9889745423104941  0.2224918854609257
  0.3628146340714551  0.1544640310332497  0.2193470766024603
  0.4949242392315796  0.3244051564201982  0.2140468106736506
  0.6211699591970117  0.4939296605502363  0.2160291896533906
  0.7477535356833087  0.6534969619742199  0.2168314299922329
  0.8805192937708100  0.8165187290975382  0.2213000523544508
  0.4985345621589943  0.9888113392065918  0.2180747187472676
  0.6228710964161337  0.1577734273068927  0.2142225617849505
  0.7442801335564582  0.3155454945879157  0.2201730400000486
  0.8634130846614525  0.4910192051972544  0.2201503193240626
  0.7420040475211209  0.9932948911444370  0.2164164435279119
  0.8754099548060594  0.1512131158718475  0.2163432695861331
  0.1197997731856546  0.6005466215960169  0.1321932365425837
  0.2317251185120668  0.7741584567949715  0.1316703268673294
  0.1100730617690004  0.2722060036619141  0.1328451194668148
  0.2487578290098682  0.4374219458488469  0.1289234639661956
  0.3825341930062862  0.6046901670673890  0.1252226668012568
  0.4991936787400562  0.7669820536426855  0.1292579256818058
  0.1192503117911841  0.9371666236596283  0.1359200956593938
  0.2509805692787523  0.1057510779111652  0.1308450317249168
  0.3709593471473980  0.2696378214851833  0.1344586215893813
  0.4924323992074733  0.4404434699808775  0.1258718767047782
  0.6295037533784935  0.6076414231963483  0.1340446375078201
  0.7387499557674673  0.7680338069789627  0.1317515198712158
  0.3618710067359672  0.9356252610116300  0.1343162832368847
  0.4931377487861326  0.1058707601873650  0.1306432186617457
  0.6222902202925269  0.2691590923803915  0.1294610752553211
  0.7437170393550119  0.4432487500002296  0.1350864473272750
  0.8737384541238526  0.6096995956733764  0.1327381986386484
  0.9873101683491612  0.7657444301047320  0.1332721345243115
  0.6221420376079365  0.9324836012614526  0.1291687136158046
  0.7422826309681554  0.1109957909919501  0.1279595058747489
  0.8605383405803551  0.2623521629216725  0.1269267175001687
  0.9898958969222278  0.4283061458118169  0.1285589307676602
  0.8715097865475840  0.9369036853255537  0.1314538121902942
  0.0134273072355171  0.0941400837522082  0.1310799234192928
  0.1193226249412689  0.7045659332379657  0.6397440689596579
  0.2467994466502930  0.8751494441755625  0.6383440743658397
  0.1261123555492958  0.3786547748422748  0.6421163748346217
  0.2512188470355809  0.5433484670967133  0.6403789113768994
  0.3615112191777783  0.7076713256317220  0.6419426284888488
  0.4992529518138937  0.8799639357407756  0.6444519266748969
  0.1198572680672783  0.0476748000444616  0.6386949083332638
  0.2501394843610072  0.2184904220631765  0.6423536054221159
  0.3720784227814420  0.3783764228817290  0.6413946592444901
  0.4926351131199951  0.5436159388503370  0.6392662665087840
  0.6257458404972240  0.7168152328699762  0.6431755592886503
  0.7564251863856626  0.8758838581431334  0.6426743679066149
  0.3729562570049652  0.0469907070339275  0.6370877546348765
  0.4951986735634435  0.2189170168431076  0.6460624216491695
  0.6119767054448886  0.3756142103481253  0.6444318790196206
  0.7512565743470745  0.5401886736683181  0.6410438252770660
  0.8622454051068615  0.7084918745707967  0.6461459535461742
  0.9870389347632837  0.8829378589674945  0.6453908251972464
  0.6335876681658590  0.0489432508353715  0.6416753264184294
  0.7431835816904737  0.2123535320143759  0.6413946592444901
  0.8719187707570626  0.3762040082319658  0.6431321227022124
  0.9922668198757094  0.5443367525592535  0.6428380904247462
  0.8705080715997369  0.0452439351459901  0.6449898720916138
  0.9986860937722568  0.2146551491213984  0.6430051542187627
  0.1151332040824684  0.6028541321484511  0.5283292247334472
  0.2427635430527317  0.7649329480047626  0.5257831725127105
  0.1243798036010375  0.2696935825456848  0.5303941332274249
  0.2411981411726956  0.4355079361136021  0.5262342447565445
  0.3623505259033095  0.5974593628804712  0.5218939273881276
  0.4987479452248067  0.7636817242081548  0.5324122638590865
  0.1063382653865332  0.9318715896218066  0.5293717028080778
  0.2489433537309793  0.1094684819445675  0.5332008049668175
  0.3709077795731588  0.2717585551520401  0.5280619226630279
  0.4971671323455737  0.4368548150627731  0.5222414200796734
  0.6279507988439619  0.5912304444147480  0.5308184752642191
  0.7480795375894118  0.7600685888244669  0.5279349541795781
  0.3726373678677248  0.9297000816559517  0.5265383008616453
  0.5013322512441007  0.0975464952042771  0.5318342231318098
  0.6208676665204393  0.2670614791532486  0.5269091824843528
  0.7420514659801896  0.4288691965202958  0.5295454491538507
  0.8746156956166402  0.5937510256861742  0.5318943660976529
  0.9935352636558221  0.7655177591270856  0.5261941494459847
  0.6284546199715777  0.9330049445100386  0.5302337519851790
  0.7442860608638426  0.1012285385651666  0.5335416151065999
  0.8757478113269315  0.2771465242906999  0.5322585651685969
  0.9963862985073817  0.4276107192523995  0.5311693092316432
  0.8658788445330714  0.9380914412484245  0.5269860318295940
  0.9931290060077416  0.1019235117826298  0.5258934346167621
  0.1188306584284220  0.7039493881787635  0.4437548496531107
  0.2526479208457886  0.8755665187744341  0.4401095176677785
  0.1245167244016017  0.3701169857982478  0.4382818397612951
  0.2427481320535350  0.5438063424715551  0.4416932824350113
  0.3634873834595069  0.7098428335975697  0.4401930495647903
  0.4970545135052831  0.8734992794582936  0.4386226499010775
  0.1258225102182351  0.0444750218556180  0.4427992447513631
  0.2431434834560235  0.2073178095749810  0.4441424376552163
  0.3630623955200960  0.3754396736953396  0.4391338651107546
  0.4849859229413269  0.5501304627478945  0.4420340925747936
  0.6166533509706298  0.7099199017299682  0.4370956868238167
  0.7377067496679359  0.8777606938380487  0.4440421993788135
  0.3786423229781519  0.0485021491128705  0.4439052070677221
  0.4941619875020322  0.2119645646167356  0.4450579472463971
  0.6173883370862114  0.3845477669191268  0.4398722870802843
  0.7381098065700300  0.5465037271055522  0.4411386306388891
  0.8733650337586809  0.7129618262499875  0.4377171641375384
  0.9955691006383915  0.8691245295897190  0.4393109527324057
  0.6250938366850178  0.0360295332336804  0.4399892317360923
  0.7427153244071647  0.2024303299549715  0.4440221517235301
  0.8657306618484739  0.3802156311943534  0.4453653446273833
  0.9965705192208674  0.5350795098321726  0.4391438889383963
  0.8648889841999932  0.0500815924851139  0.4400994938401439
  0.9917111348084831  0.2077824850791572  0.4391572540419162
 
  0.00000000E+00  0.00000000E+00  0.00000000E+00
  0.00000000E+00  0.00000000E+00  0.00000000E+00
  0.00000000E+00  0.00000000E+00  0.00000000E+00
  0.00000000E+00  0.00000000E+00  0.00000000E+00
  0.00000000E+00  0.00000000E+00  0.00000000E+00
  0.00000000E+00  0.00000000E+00  0.00000000E+00
  0.00000000E+00  0.00000000E+00  0.00000000E+00
  0.00000000E+00  0.00000000E+00  0.00000000E+00
  0.00000000E+00  0.00000000E+00  0.00000000E+00
  0.00000000E+00  0.00000000E+00  0.00000000E+00
  0.00000000E+00  0.00000000E+00  0.00000000E+00
  0.00000000E+00  0.00000000E+00  0.00000000E+00
  0.00000000E+00  0.00000000E+00  0.00000000E+00
  0.00000000E+00  0.00000000E+00  0.00000000E+00
  0.00000000E+00  0.00000000E+00  0.00000000E+00
  0.00000000E+00  0.00000000E+00  0.00000000E+00
  0.00000000E+00  0.00000000E+00  0.00000000E+00
  0.00000000E+00  0.00000000E+00  0.00000000E+00
  0.00000000E+00  0.00000000E+00  0.00000000E+00
  0.00000000E+00  0.00000000E+00  0.00000000E+00
  0.00000000E+00  0.00000000E+00  0.00000000E+00
  0.00000000E+00  0.00000000E+00  0.00000000E+00
  0.00000000E+00  0.00000000E+00  0.00000000E+00
  0.00000000E+00  0.00000000E+00  0.00000000E+00
  0.00000000E+00  0.00000000E+00  0.00000000E+00
  0.00000000E+00  0.00000000E+00  0.00000000E+00
  0.00000000E+00  0.00000000E+00  0.00000000E+00
  0.00000000E+00  0.00000000E+00  0.00000000E+00
  0.00000000E+00  0.00000000E+00  0.00000000E+00
  0.00000000E+00  0.00000000E+00  0.00000000E+00
  0.00000000E+00  0.00000000E+00  0.00000000E+00
  0.00000000E+00  0.00000000E+00  0.00000000E+00
  0.00000000E+00  0.00000000E+00  0.00000000E+00
  0.00000000E+00  0.00000000E+00  0.00000000E+00
  0.00000000E+00  0.00000000E+00  0.00000000E+00
  0.00000000E+00  0.00000000E+00  0.00000000E+00
  0.00000000E+00  0.00000000E+00  0.00000000E+00
  0.00000000E+00  0.00000000E+00  0.00000000E+00
  0.00000000E+00  0.00000000E+00  0.00000000E+00
  0.00000000E+00  0.00000000E+00  0.00000000E+00
  0.00000000E+00  0.00000000E+00  0.00000000E+00
  0.00000000E+00  0.00000000E+00  0.00000000E+00
  0.00000000E+00  0.00000000E+00  0.00000000E+00
  0.00000000E+00  0.00000000E+00  0.00000000E+00
  0.00000000E+00  0.00000000E+00  0.00000000E+00
  0.00000000E+00  0.00000000E+00  0.00000000E+00
  0.00000000E+00  0.00000000E+00  0.00000000E+00
  0.00000000E+00  0.00000000E+00  0.00000000E+00
  0.00000000E+00  0.00000000E+00  0.00000000E+00
  0.00000000E+00  0.00000000E+00  0.00000000E+00
  0.00000000E+00  0.00000000E+00  0.00000000E+00
  0.00000000E+00  0.00000000E+00  0.00000000E+00
  0.00000000E+00  0.00000000E+00  0.00000000E+00
  0.00000000E+00  0.00000000E+00  0.00000000E+00
  0.00000000E+00  0.00000000E+00  0.00000000E+00
  0.00000000E+00  0.00000000E+00  0.00000000E+00
  0.00000000E+00  0.00000000E+00  0.00000000E+00
  0.00000000E+00  0.00000000E+00  0.00000000E+00
  0.00000000E+00  0.00000000E+00  0.00000000E+00
  0.00000000E+00  0.00000000E+00  0.00000000E+00
  0.00000000E+00  0.00000000E+00  0.00000000E+00
  0.00000000E+00  0.00000000E+00  0.00000000E+00
  0.00000000E+00  0.00000000E+00  0.00000000E+00
  0.00000000E+00  0.00000000E+00  0.00000000E+00
  0.00000000E+00  0.00000000E+00  0.00000000E+00
  0.00000000E+00  0.00000000E+00  0.00000000E+00
  0.00000000E+00  0.00000000E+00  0.00000000E+00
  0.00000000E+00  0.00000000E+00  0.00000000E+00
  0.00000000E+00  0.00000000E+00  0.00000000E+00
  0.00000000E+00  0.00000000E+00  0.00000000E+00
  0.00000000E+00  0.00000000E+00  0.00000000E+00
  0.00000000E+00  0.00000000E+00  0.00000000E+00
  0.00000000E+00  0.00000000E+00  0.00000000E+00
  0.00000000E+00  0.00000000E+00  0.00000000E+00
  0.00000000E+00  0.00000000E+00  0.00000000E+00
  0.00000000E+00  0.00000000E+00  0.00000000E+00
  0.00000000E+00  0.00000000E+00  0.00000000E+00
  0.00000000E+00  0.00000000E+00  0.00000000E+00
  0.00000000E+00  0.00000000E+00  0.00000000E+00
  0.00000000E+00  0.00000000E+00  0.00000000E+00
  0.00000000E+00  0.00000000E+00  0.00000000E+00
  0.00000000E+00  0.00000000E+00  0.00000000E+00
  0.00000000E+00  0.00000000E+00  0.00000000E+00
  0.00000000E+00  0.00000000E+00  0.00000000E+00
  0.00000000E+00  0.00000000E+00  0.00000000E+00
  0.00000000E+00  0.00000000E+00  0.00000000E+00
  0.00000000E+00  0.00000000E+00  0.00000000E+00
  0.00000000E+00  0.00000000E+00  0.00000000E+00
  0.00000000E+00  0.00000000E+00  0.00000000E+00
  0.00000000E+00  0.00000000E+00  0.00000000E+00
  0.00000000E+00  0.00000000E+00  0.00000000E+00
  0.00000000E+00  0.00000000E+00  0.00000000E+00
  0.00000000E+00  0.00000000E+00  0.00000000E+00
  0.00000000E+00  0.00000000E+00  0.00000000E+00
  0.00000000E+00  0.00000000E+00  0.00000000E+00
  0.00000000E+00  0.00000000E+00  0.00000000E+00
  0.00000000E+00  0.00000000E+00  0.00000000E+00
  0.00000000E+00  0.00000000E+00  0.00000000E+00
  0.00000000E+00  0.00000000E+00  0.00000000E+00
  0.00000000E+00  0.00000000E+00  0.00000000E+00
  0.00000000E+00  0.00000000E+00  0.00000000E+00
  0.00000000E+00  0.00000000E+00  0.00000000E+00
  0.00000000E+00  0.00000000E+00  0.00000000E+00
  0.00000000E+00  0.00000000E+00  0.00000000E+00
  0.00000000E+00  0.00000000E+00  0.00000000E+00
  0.00000000E+00  0.00000000E+00  0.00000000E+00
  0.00000000E+00  0.00000000E+00  0.00000000E+00
  0.00000000E+00  0.00000000E+00  0.00000000E+00
  0.00000000E+00  0.00000000E+00  0.00000000E+00
  0.00000000E+00  0.00000000E+00  0.00000000E+00
  0.00000000E+00  0.00000000E+00  0.00000000E+00
  0.00000000E+00  0.00000000E+00  0.00000000E+00
  0.00000000E+00  0.00000000E+00  0.00000000E+00
  0.00000000E+00  0.00000000E+00  0.00000000E+00
  0.00000000E+00  0.00000000E+00  0.00000000E+00
  0.00000000E+00  0.00000000E+00  0.00000000E+00
  0.00000000E+00  0.00000000E+00  0.00000000E+00
  0.00000000E+00  0.00000000E+00  0.00000000E+00
  0.00000000E+00  0.00000000E+00  0.00000000E+00
  0.00000000E+00  0.00000000E+00  0.00000000E+00
  0.00000000E+00  0.00000000E+00  0.00000000E+00
  0.00000000E+00  0.00000000E+00  0.00000000E+00
  0.00000000E+00  0.00000000E+00  0.00000000E+00
  0.00000000E+00  0.00000000E+00  0.00000000E+00
  0.00000000E+00  0.00000000E+00  0.00000000E+00
  0.00000000E+00  0.00000000E+00  0.00000000E+00
  0.00000000E+00  0.00000000E+00  0.00000000E+00
  0.00000000E+00  0.00000000E+00  0.00000000E+00
  0.00000000E+00  0.00000000E+00  0.00000000E+00
  0.00000000E+00  0.00000000E+00  0.00000000E+00
  0.00000000E+00  0.00000000E+00  0.00000000E+00
  0.00000000E+00  0.00000000E+00  0.00000000E+00
  0.00000000E+00  0.00000000E+00  0.00000000E+00
  0.00000000E+00  0.00000000E+00  0.00000000E+00
  0.00000000E+00  0.00000000E+00  0.00000000E+00
  0.00000000E+00  0.00000000E+00  0.00000000E+00
  0.00000000E+00  0.00000000E+00  0.00000000E+00
  0.00000000E+00  0.00000000E+00  0.00000000E+00
  0.00000000E+00  0.00000000E+00  0.00000000E+00
  0.00000000E+00  0.00000000E+00  0.00000000E+00
  0.00000000E+00  0.00000000E+00  0.00000000E+00
  0.00000000E+00  0.00000000E+00  0.00000000E+00
  0.00000000E+00  0.00000000E+00  0.00000000E+00
  0.00000000E+00  0.00000000E+00  0.00000000E+00
  0.00000000E+00  0.00000000E+00  0.00000000E+00
  0.00000000E+00  0.00000000E+00  0.00000000E+00
  0.00000000E+00  0.00000000E+00  0.00000000E+00
  0.00000000E+00  0.00000000E+00  0.00000000E+00
  0.00000000E+00  0.00000000E+00  0.00000000E+00
  0.00000000E+00  0.00000000E+00  0.00000000E+00
  0.00000000E+00  0.00000000E+00  0.00000000E+00
  0.00000000E+00  0.00000000E+00  0.00000000E+00
  0.00000000E+00  0.00000000E+00  0.00000000E+00
  0.00000000E+00  0.00000000E+00  0.00000000E+00
  0.00000000E+00  0.00000000E+00  0.00000000E+00
  0.00000000E+00  0.00000000E+00  0.00000000E+00
  0.00000000E+00  0.00000000E+00  0.00000000E+00