Bi6 Se8
1.0
   2.0725046248441696   -3.5896833091515763    0.0000000000000000
   2.0725046248441696    3.5896833091515763   -0.0000000000000000
   0.0000000000000001    0.0000000000000000   28.4482387828524637
Bi Se
6 8
direct
   0.6666666666666643    0.3333333333333357    0.7340595571225377 Bi
   0.6666666666666643    0.3333333333333357    0.9326071095441337 Bi
   0.3333333333333357    0.6666666666666643    0.0673928904558663 Bi
   0.3333333333333357    0.6666666666666643    0.2659404428774622 Bi
   0.0000000000000000    0.0000000000000000    0.4007262237892021 Bi
   0.0000000000000000    0.0000000000000000    0.5992737762107980 Bi
   0.3333333333333357    0.6666666666666643    0.8772078870761840 Se
   0.0000000000000000    0.0000000000000000    0.7894587795904803 Se
   0.6666666666666643    0.3333333333333357    0.3333333333333357 Se
   0.0000000000000000    0.0000000000000000    0.2105412204095198 Se
   0.6666666666666643    0.3333333333333357    0.1227921129238159 Se
   0.3333333333333357    0.6666666666666643    0.6666666666666643 Se
   0.6666666666666643    0.3333333333333357    0.5438745537428483 Se
   0.3333333333333357    0.6666666666666643    0.4561254462571515 Se
