Bi144 Se216
1.0
  16.8710670000000000    0.0000000000000000    0.0000000000000000
   0.0000000000000000   22.0584039999999995    0.0000000000000000
   0.0000000000000000    0.0000000000000000   29.9286870000000000
Bi Se
144 216
direct
   0.0771243454844913    0.6246462799393827    0.7581087670167422 Bi
   0.1455562946907863    0.8144696234596120    0.7573703450472118 Bi
   0.0917689438373993    0.2959212280271954    0.7443026150796392 Bi
   0.2068707331907342    0.4512543155887435    0.7641731827393564 Bi
   0.3260665137539908    0.6379972005227577    0.7504873167339416 Bi
   0.4315791052219756    0.7755230160804018    0.7720920065754974 Bi
   0.0782013372361096    0.9688552263345980    0.7608519545144096 Bi
   0.2112610897698409    0.1295646774807461    0.7490539093813237 Bi
   0.3563805419064485    0.2993675335713318    0.7460434198132381 Bi
   0.4434989203705966    0.4618829177305847    0.7587603158133868 Bi
   0.5552671920513386    0.6347467387033078    0.7443560754937228 Bi
   0.7010700627292867    0.7681335422091281    0.7405336558867418 Bi
   0.3247767316672976    0.9915495246165588    0.7667493064430124 Bi
   0.4878334014084587    0.1200381496322218    0.7538920768558942 Bi
   0.5683143810643393    0.2856271922483603    0.7509116587707306 Bi
   0.6839401443903933    0.4655595209880098    0.7342787874389545 Bi
   0.8341499681081226    0.6128684559408740    0.7272554255387148 Bi
   0.9187326444735238    0.7366942776095677    0.8381055941411664 Bi
   0.5764774687931712    0.9362191389730643    0.7443326865625614 Bi
   0.7453826127298291    0.1193925906878848    0.7715273309517389 Bi
   0.8312692967196443    0.3188163567953511    0.7569760744933449 Bi
   0.9624524637356962    0.4597612773798141    0.7346129150269773 Bi
   0.8411560454356561    0.9244322481354499    0.7600066117167118 Bi
   0.9714916074958388    0.1425488444222891    0.7689445246963224 Bi
   0.0858351164155770    0.6215046201892032    0.9772363217938695 Bi
   0.1927939708851847    0.7866525610828417    0.9568679040279984 Bi
   0.0974639007716584    0.2903188281436862    0.9845169619368869 Bi
   0.2172138845752909    0.4470563690827314    0.9524473960384565 Bi
   0.3508782224621596    0.5996308708463224    0.9346116653897981 Bi
   0.4462894966868426    0.7748475365670154    0.9611280307752893 Bi
   0.1200202690203293    0.9652919585659959    0.9835246030004592 Bi
   0.1978624114289867    0.1300674337091659    0.9791441903214799 Bi
   0.3394758612481356    0.2881119595053205    0.9771260596898221 Bi
   0.4499098960368066    0.4480641482493475    0.9464197343505247 Bi
   0.5619917222781464    0.6250406874404875    0.9615958093985213 Bi
   0.6790678977209917    0.8096460650552959    0.9377457821654522 Bi
   0.3349527329836340    0.9705915260233696    0.9606301806691353 Bi
   0.4559367821845530    0.1223184596673449    0.9444684292364715 Bi
   0.6280100719177987    0.2962122735624935    0.9450030333773078 Bi
   0.6829443567499317    0.4745855593178908    0.9649170376234681 Bi
   0.7964167293034874    0.6423266161958046    0.9895255344813491 Bi
   0.9538756499514820    0.7917571914994394    0.9870262601229384 Bi
   0.5641451130506446    0.9694853716524551    0.9754554217497079 Bi
   0.7245007088170534    0.1423652409303955    0.9545189870841979 Bi
   0.8591691325747209    0.3243212881584724    0.9750979052305235 Bi
   0.9789066690328477    0.4498036213318062    0.9715461289698410 Bi
   0.8192072261938145    0.9355300592010192    0.9643824334826316 Bi
   0.9701283267975879    0.1409848146765287    0.9718835978337440 Bi
   0.0531409187101207    0.7404615492580515    0.0769893447046307 Bi
   0.2370762916180701    0.9124640205157182    0.0911456623539817 Bi
   0.1007784510606235    0.4208409638340108    0.0866753693538243 Bi
   0.2218294788349782    0.5872229015299566    0.0598703177322814 Bi
   0.3140488980335387    0.7431453336333853    0.0689779675266075 Bi
   0.4528919243815462    0.9229679536198540    0.0863188552174040 Bi
   0.0773448413191649    0.0988648136102685    0.0923461827777477 Bi
   0.2031590533070611    0.2486453689033894    0.0698968183936703 Bi
   0.3570242474883183    0.4050229563299321    0.0630074416562277 Bi
   0.4447246875375457    0.5931843482420578    0.0612185225499535 Bi
   0.5182772375926193    0.7346315717129851    0.0812785405520797 Bi
   0.6752092206142030    0.8795241940441384    0.0911132519779434 Bi
   0.3520613130159462    0.0745910719560672    0.0849108415614758 Bi
   0.4600941955834802    0.2412060274170334    0.0790769738745973 Bi
   0.5754781247682793    0.4041874471063274    0.0891749778398231 Bi
   0.3143606744019213    0.5180973201869001    0.1811305654671720 Bi
   0.8436870056884961    0.7457203159394488    0.1184956760715898 Bi
   0.9399938960588563    0.9211545857986824    0.0770281035048414 Bi
   0.6170504805653371    0.0808952451863698    0.0646663851307610 Bi
   0.7505334428462646    0.2505679921357864    0.0760775105169164 Bi
   0.8791619403799416    0.3866780207670510    0.0850715569313148 Bi
   0.9549307106657807    0.5657526265272863    0.0832739505077520 Bi
   0.8629803912224401    0.0822004166756579    0.0740911220061208 Bi
   0.9714678982663041    0.2546879638254880    0.1002202335170935 Bi
   0.1193196612875759    0.7219470638038908    0.2460214843370844 Bi
   0.2511572030387882    0.9075815276572140    0.2769797418777510 Bi
   0.1065901759503415    0.4072062511866226    0.2869123526869054 Bi
   0.2085795759094549    0.5959497341693443    0.2925293715691571 Bi
   0.3682837605943951    0.7556031705648333    0.2861568902103858 Bi
   0.4707568288360184    0.9316721191614770    0.3099688268984203 Bi
   0.1246986927382838    0.0591520583266133    0.3006092449027250 Bi
   0.2166057428377233    0.2250611603631885    0.2966187591189683 Bi
   0.3659134303716534    0.4135974660723414    0.2963932229970530 Bi
   0.5057279423998494    0.5982300442044673    0.2769089068290901 Bi
   0.5849375146219263    0.7423973194071520    0.3224164160626225 Bi
   0.7261366456549547    0.9257469398057991    0.2797737167687978 Bi
   0.3424887115912704    0.0785015996624234    0.2773035115105451 Bi
   0.4603727790305142    0.2158270380758281    0.2755941147702203 Bi
   0.6083551206334490    0.3838527937016659    0.2816054042063389 Bi
   0.7635142460165678    0.6117169673744302    0.2708799086308063 Bi
   0.8786699738670944    0.7482726311477477    0.3358750753081818 Bi
   0.0071888162141731    0.9079260675432366    0.3293438833450997 Bi
   0.6155449444898772    0.0485597235411955    0.3049151471295751 Bi
   0.7281934213170986    0.2454148541299724    0.3133354964753382 Bi
   0.8773363297057619    0.3962276690552952    0.3038339102547332 Bi
   0.9858416186717770    0.5912032438974280    0.2821206289470701 Bi
   0.8484644154397585    0.0644248786086246    0.2796591110061060 Bi
   0.9886274531421161    0.2352273537106311    0.2959765658947885 Bi
   0.9624406091209288    0.6743053577221634    0.4523486112170574 Bi
   0.1072238051096590    0.8560456141795209    0.4328188536971235 Bi
   0.9854681983066039    0.3476724789336527    0.4216489684295205 Bi
   0.0920001088253636    0.5237550277889552    0.3946882133519590 Bi
   0.2362446903921370    0.6772520804315670    0.4333534578379600 Bi
   0.3603921435437367    0.8555288043504871    0.4273993042193933 Bi
   0.9806611520184229    0.0167802711383834    0.4238141151999084 Bi
   0.0994637742829188    0.1943354560012592    0.4029812600866854 Bi
   0.2260159360400857    0.3299250480678475    0.4015244638029059 Bi
   0.3321603784751729    0.5218917923527014    0.4060853053794174 Bi
   0.4881345086235506    0.6870850674418694    0.4225845256759844 Bi
   0.6068199480210706    0.8440411192033658    0.4344661027060760 Bi
   0.2275991198422720    0.0001352772394594    0.4233329714731556 Bi
   0.5288094700827162    0.1777304468627921    0.5078071082770855 Bi
   0.4703774811634616    0.3483479584470390    0.3944275938333012 Bi
   0.6261251881697820    0.4941925988843073    0.3972041940897709 Bi
   0.7125512571315139    0.6935043895288163    0.4246995533081689 Bi
   0.8495609673057429    0.8581355205934209    0.4473266735690744 Bi
   0.5027227975563134    0.0251845509765802    0.4350608498127566 Bi
   0.5921587532074882    0.1609994086607535    0.4091559379133472 Bi
   0.7361597224407916    0.3262416446810930    0.4221802312944768 Bi
   0.8814380264152823    0.5190493382930152    0.4234265271978019 Bi
   0.7624473306875018    0.0182522271330238    0.4138237003180260 Bi
   0.8416243027189685    0.1532255008113914    0.4371090519273365 Bi
   0.9449372704168622    0.6640099619174624    0.6146043092368203 Bi
   0.1017896497002827    0.8482073317725072    0.6135584898863088 Bi
   0.9498154443936474    0.3437465376008164    0.6253866065023167 Bi
   0.1026010980811113    0.5027970291957659    0.6303918377708987 Bi
   0.1758845483809649    0.6637334233247337    0.6291054465570107 Bi
   0.3558784989710491    0.8215326911230749    0.6518996306119277 Bi
   0.9585345135550704    0.0094645560032358    0.6388853610584387 Bi
   0.1222916132097632    0.1591524935348904    0.6357779744898264 Bi
   0.1931573148278055    0.3422269353666748    0.6238563021491722 Bi
   0.3226642393157469    0.4957747623082794    0.6370977784625166 Bi
   0.4619138789502762    0.6758149864332886    0.6392696077846650 Bi
   0.5860014662973005    0.8340177285718404    0.6480571633496651 Bi
   0.2348405112729384    0.0003516573547207    0.6427612410795034 Bi
   0.3659673688688451    0.1823255209216406    0.6115503830822917 Bi
   0.4820655385933800    0.3412785439962021    0.6340705825150299 Bi
   0.5666594768428103    0.5140988441412171    0.6253398286399935 Bi
   0.6959133053054676    0.6743869592741161    0.6319923089175279 Bi
   0.8612318355442485    0.8460992916803953    0.6338634234104558 Bi
   0.4510194879790353   -0.0017399264244140    0.6578571255063747 Bi
   0.6184256158783555    0.1710373062348482    0.6440810450521935 Bi
   0.7078686842983909    0.3341465683555347    0.6297503128018948 Bi
   0.8169133582363225    0.5136908363814535    0.6088305845157859 Bi
   0.7183422364453890    0.0160022456747097    0.6426108836648933 Bi
   0.8465321132326722    0.1864146653583822    0.6381469390889083 Bi
   0.9265566902200080    0.6799131977091362    0.0382569405734371 Se
   0.0789250614676594    0.8623561341971976    0.0332402821413449 Se
   1.0031908473838673    0.3352708564046610    0.0294118816505382 Se
   0.1035874020297590    0.5196794836108724    0.0207690701566694 Se
   0.2036344233592339    0.6821889743247064    0.0035865589425958 Se
   0.3438721451346261    0.8518703347712736   -0.0017107666634357 Se
   0.9644973847830726    0.0197414101219653    0.0149983525839273 Se
   0.0792919617947104    0.1957376426689800    0.0303144605040642 Se
   0.2170307307771346    0.3530110337991815    0.0260160093224270 Se
   0.3327163599077639    0.5053765449213823    0.0055278068162496 Se
   0.4226792531853498    0.6817537660476252    0.0059860628032229 Se
   0.5369796705804084    0.8503833731579129    0.0299837410174392 Se
   0.2232235815316245    0.0259959877423589    0.0330685405611011 Se
   0.3383804948436279    0.1794762667326249    0.0126810441099538 Se
   0.4718486388560960    0.3356752374287822    0.0139272397750025 Se
   0.5455250696354890    0.5222544659169357    0.0239672726037063 Se
   0.6675926306261483    0.7029021682620374    0.0247712838187656 Se
   0.8033813154793351    0.8450203378267984    0.0395353127252124 Se
   0.4438130676619327    0.0219698578374029    0.0233644730221543 Se
   0.6336587958544649    0.1893650148034282    0.0132832088490885 Se
   0.7046738656185765    0.3551145404717404    0.0099998038671058 Se
   0.8597085175466377    0.4997188373193273    0.0088654741185272 Se
   0.6920072097396092    0.9867350330513485    0.0217800065869913 Se
   0.8565966811701951    0.1870951316332768    0.0152211822723797 Se
   0.0537917963339248    0.7328680715068960    0.9304150228842315 Se
   0.2004313064490823    0.9301942243872222    0.9011922240357554 Se
   0.3243078816532469    0.3762080883095622    0.9103005420852576 Se
   0.1071775721120662    0.5508784769741274    0.9096757234956550 Se
   0.3240020325922480    0.7459107195606718    0.8904967999431449 Se
   0.4599655730132540    0.8996435100200358    0.9082289510395161 Se
   0.0955962062150544    0.0668819920063120    0.9244875994727066 Se
   0.0929046159321162    0.1965917389127518    0.8451690513519688 Se
   0.2133700257369614    0.2462068425258691    0.9243706548168986 Se
   0.4741484341209717    0.5531315864919329    0.9000461664088372 Se
   0.4442155318332859    0.6775150187656369    0.8064503464518842 Se
   0.6713327615852631    0.9131848342246338    0.8945798390687838 Se
   0.3174090885893583    0.0794282306190421    0.9134847779991152 Se
   0.4595832616870053    0.2543144100543267    0.9005306514114703 Se
   0.5823620995637087    0.4202987668554806    0.9098594936690674 Se
   0.6882315149361922    0.5683548093506675    0.8968686130467401 Se
   0.8223368444924082    0.7398767381357236    0.9236422566750089 Se
   0.9486536921464421    0.8891758442723237    0.9262918884480299 Se
   0.6003236191285353    0.0820322268102443    0.9229806840507238 Se
   0.7515707216384121    0.2393504987940197    0.8936877184087629 Se
   0.7928662721806510    0.3914421913752237    0.9037583239117708 Se
   0.9014308342205030    0.4913818787614915    0.8911383249121487 Se
   0.8436336599220429    0.0576505897706833    0.9077879026233260 Se
   0.9601585957782041    0.2316169383786787    0.9246813934737599 Se
   0.9176657291444577    0.6153346361776673    0.9072566397583697 Se
   0.0319504984480235    0.8460403572262072    0.8288034820906109 Se
   0.9920238002729761    0.3634655526301903    0.8070250459032834 Se
   0.3035652694639883    0.5323594581004139    0.8064336400724831 Se
   0.1805333355620009    0.6739925517730113    0.8262540885939968 Se
   0.2780671785607869    0.8741656921325767    0.8139648759065174 Se
   0.9882718146990941    0.0148141724124737    0.8270292645982098 Se
   0.2050747590534730    0.3466243523330155    0.8164641502649281 Se
   0.0853425571719916    0.3796353534915763    0.9130236819276437 Se
   0.4467755358923060    0.5582452837476365    0.6833009413343125 Se
   0.5726679883376670    0.7172187072101862    0.8969220734608238 Se
   0.5636146190398035    0.8155984449282913    0.8067176485223024 Se
   0.1818954307987752    0.0386275906452706    0.8111314739600839 Se
   0.3027881994659852    0.1857038251724830    0.8126049766232646 Se
   0.4414759303605397    0.3725976729776098    0.8161099750216240 Se
   0.5993752499471432    0.5013916691343581    0.8001219699347319 Se
   0.7054977613449107    0.6730496005060022    0.8021334180146292 Se
   0.7951660674455266    0.8468609061652873    0.8136975738360993 Se
   0.4446191814661159    0.0246724559038814    0.8274335589797174 Se
   0.6152070879690064    0.1897567022528013    0.8133400573169147 Se
   0.6990310689892939    0.3696060694146321    0.7960823673955361 Se
   0.8178320908807961    0.5008431253684537    0.7843678541594559 Se
   0.6779713458550073    0.0088934811421533    0.8108140527514622 Se
   0.8607398690314014    0.2110918813527941    0.8060995124844602 Se
   0.1133307099070853    0.6289031608995828    0.3650811677772566 Se
   0.2461723375290964    0.8252908959324528    0.3419595386860774 Se
   0.0921749643931827    0.2929450380906978    0.3527217882962925 Se
   0.2238287596155003    0.4363176048457540    0.3617632808281900 Se
   0.3690898743985783    0.6310112009916946    0.3708482099465306 Se
   0.4687379879411302    0.7876816473213565    0.3792247885782628 Se
   0.1244687132117963    0.9470766788023285    0.3705408125655496 Se
   0.2136011907249257    0.1143310277570399    0.3566979065937640 Se
   0.3277143052066594    0.3951029276642136    0.4622621767536946 Se
   0.4751602254913693    0.4596751424083084    0.3570754707682299 Se
   0.6415361873674024    0.6006735573434959    0.3322073567744552 Se
   0.7419625563694341    0.8142656195797303    0.3756295757311372 Se
   0.3362454787240190    0.9550736308936947    0.3707646780495249 Se
   0.4717869948593056    0.0803761686475594    0.3660100424719601 Se
   0.5874927768350395    0.2805751494985766    0.3496778859694046 Se
   0.7699750110648010    0.4493067585488053    0.3677642123090800 Se
   0.8278018219001797    0.6344520664323674    0.3781789692277513 Se
   0.9993440248918458    0.7939513665630569    0.3869665247927516 Se
   0.6441619845383815    0.9526346511742191    0.3667083691309278 Se
   0.7289580439695960    0.1089970063110640    0.3604033815449372 Se
   0.8489919457969077    0.2703395948319742    0.3598988488870227 Se
   0.9839508076163765    0.4676630276605687    0.3600458650257528 Se
   0.8798495080364507    0.9683656170228817    0.3657661293327035 Se
   0.9372199162032845    0.1158991375803979    0.3382072858725811 Se
   0.9263373798468110    0.7027162980603674    0.2373689163176454 Se
   0.1355818218254957    0.8700856145349409    0.2272344924453251 Se
   0.9979214711197577    0.3511196911616997    0.2222910747805275 Se
   0.1023906786689899    0.5027834289371071    0.2245461018720935 Se
   0.2905287496042782    0.6603514923382490    0.2387050925421486 Se
   0.4161752187932156    0.8866733966791069    0.2349966104426833 Se
  -0.0024393240806880    0.9879273223937689    0.2562080321131362 Se
   0.0928008880529014    0.1816459613306566    0.2531521011930794 Se
   0.2279512019008638    0.3578717662438316    0.2274526777603040 Se
   0.3948321703659881    0.5389238496130545    0.2645000764650985 Se
   0.4923760897873264    0.7099108348908652    0.2344750372777797 Se
   0.5847905173988106    0.8593006094185236    0.2724259169805879 Se
   0.2057131300586975    0.0276846865258248    0.2184141923766987 Se
   0.3369603119944933    0.1804269248128740    0.2275696224161120 Se
   0.4857772184770530    0.3427260648594522    0.2395069987534034 Se
   0.6239202298230455    0.5044154599761614    0.2217427714085820 Se
   0.7228766265939196    0.7362001348782985    0.2596692597974646 Se
   0.8921427435502448    0.8553293338901582    0.2659020758244423 Se
   0.4527176615444654    0.0412959160599289    0.2312978180432707 Se
   0.6268601742853608    0.1922949638604860    0.2411783049486936 Se
   0.7665490273970222    0.3538374761836804    0.2515329189015209 Se
   0.8511909768362605    0.5582679508454012    0.2083933718843062 Se
   0.7259766083555947    0.0208678742124770    0.2275559231850031 Se
   0.8626425347015692    0.1947430104190675    0.2403316256406437 Se
   0.0870875564657529    0.6296693088040277    0.1306124789236494 Se
   0.1909689529417434    0.7844221186628009    0.1206514672695130 Se
   0.1109912016827389    0.3016618972070690    0.1562016402523773 Se
   0.2313754073764273    0.4415070102079914    0.1233655856670224 Se
   0.3288345663021787    0.6427618244728857    0.1208649747982596 Se
   0.4066316611747200    0.8186539697069651    0.1366401406115811 Se
   0.0730848855024996    0.9879590563306393    0.1303558689360479 Se
   0.2005871946332736    0.1632697451728602    0.1474648720807565 Se
   0.3316316626565468    0.3056957339252649    0.1191659360131636 Se
   0.4474109432438387    0.4795133863719243    0.1289384997076551 Se
   0.5997605249270838    0.5936558238755624    0.1386990348089778 Se
   0.6825353725404564    0.7967439530076609    0.1596611972987656 Se
   0.3641239762725144    0.9901849653311272    0.1445409215579688 Se
   0.4497380041226793    0.1395178001092010    0.1417813618084883 Se
   0.6087463229207732    0.2918828578894466    0.1497850540519870 Se
   0.7597266965983834    0.4490338466917190    0.1467618676355565 Se
   0.7250282391742027    0.5754450775314479    0.0833411101529446 Se
   0.9883607243098496    0.8065406726615398    0.1506845255189444 Se
   0.5880582419594444    0.9921615362562042    0.1346136567902227 Se
   0.7201856290417197    0.1197956116861401    0.1311731450163517 Se
   0.8281811695727366    0.3079615370178187    0.1474244426426057 Se
   0.9737795481459470    0.4697574674940218    0.1357837716034787 Se
   0.7994633652987093    0.9567781966455959    0.1251588484319409 Se
   0.9535852118896807    0.1353447874107302    0.1429688512563214 Se
   0.0116773290035538    0.7508974810688933    0.7427956996576562 Se
   0.2372606308777032    0.9047572072757394    0.6884531887416245 Se
   0.0721501491280901    0.4025345623373295    0.6925930295572272 Se
   0.0357982693092263    0.7472208778114682    0.6502991594652983 Se
   0.3207105988020793    0.7258956722344917    0.6910159473417595 Se
   0.4585157536272009    0.8526863502908008    0.7018082684348966 Se
   0.0712183764073725    0.0712231945701965    0.6909457805482746 Se
   0.2136361618384895    0.2316205651143211    0.6863214547300389 Se
   0.3254767466693126    0.3895046078583020    0.6880956722224401 Se
   0.2069940211843151    0.5658070275619216    0.6913534162056625 Se
   0.5840662004365225    0.7122047451846470    0.6862947245229970 Se
   0.7296930300851748    0.8860115174243794    0.6896794369896683 Se
   0.3275625661376367    0.0813698942135614    0.7003614959787577 Se
   0.4711978205053657    0.2238421238454060    0.6830035677809723 Se
   0.6053084846382271    0.3978252461057473    0.6764012066416413 Se
   0.7066535862847323    0.5548814864393634    0.6816570336012402 Se
   0.8225443002508377    0.7094438926769135    0.6856030804157898 Se
   0.0259144842469063    0.8893254471175702    0.6924694023496587 Se
   0.6057826692289231    0.0404556014115980    0.6985171116928718 Se
   0.7161254234838851    0.2402163819286291    0.7025767618873492 Se
   0.8282463699539572    0.4238062735635815    0.6832140681614266 Se
   0.9524353142572428    0.5575970047515677    0.6765515640562515 Se
   0.8511554129919583    0.0830005652267499    0.7124235019063817 Se
   0.9582677847228038    0.2411298659685442    0.6906317006155333 Se
   0.0761054413452332    0.6125148492157456    0.5601147821820583 Se
   0.2555161448887613    0.7621358281406034    0.5808473990188745 Se
   0.0623197098322234    0.3118484909424997    0.5764001608222907 Se
   0.2349691338431647    0.4612709060909392    0.5611372126014083 Se
   0.3141686296426895    0.6037789497372521    0.5811648202274962 Se
   0.4834768304814390    0.7876091126085096    0.5963509191031334 Se
   0.1031339630149059    0.9543981513803083    0.5571677768556971 Se
   0.2405728102437149    0.1088469501238621    0.5768445505143610 Se
   0.3525639486820839    0.3063970539301030    0.5675457797396860 Se
   0.4907134800661985    0.4586823235262171    0.5669944692194483 Se
   0.5337350625185709    0.6292431673660525    0.5765271293057393 Se
   0.7139263924445324    0.7800020345986953    0.5818999009211464 Se
   0.3825786478116648    0.9254976017303881    0.5970358806585803 Se
   0.4895766225100048    0.0798493852955091    0.5894678907898633 Se
   0.6073119145339178    0.3017199249773465    0.5611472364290488 Se
   0.6829384294425480    0.4413755410409565    0.5547553756701723 Se
   0.8394786174460690    0.6160599833061358    0.5672383823587049 Se
   0.9510068331777710    0.8205036048845601    0.5693634338185301 Se
   0.5888228646119418    0.9464102661280481    0.5930931751199109 Se
   0.7361597224407916    0.1061572723031095    0.5914191959039166 Se
   0.8215129487660738    0.2965418531639914    0.5830259108927833 Se
  -0.0014326894677142    0.4629618715841817    0.5649429258289882 Se
   0.8265274508126842    0.9633380547386837    0.5806235335348993 Se
   0.9914310695346062    0.1112211019437308    0.5746025543987279 Se
   0.0913054283999939    0.7285023884774257    0.4973121607372887 Se
   0.2538274550151451    0.9092860934091153    0.4931556135422847 Se
   0.1102301354146717    0.4148242094033638    0.4571232944499036 Se
   0.2277988701011027    0.5628467045938591    0.4821126967581305 Se
   0.3711472427914607    0.7380225695385758    0.4877260402369138 Se
   0.4966757585634625    0.9387759876009161    0.4969112076316612 Se
   0.0971112259823282    0.0769316764712442    0.4755704785846436 Se
   0.3349533257143724    0.1479748942851895    0.4520913329742799 Se
   0.4301316567588760    0.2390109456695054    0.4561777133757989 Se
   0.4644792175859416    0.5545596136511055    0.4695962773107955 Se
   0.5774305798204702    0.7439205483769361    0.4874019364765318 Se
   0.7165640442302790    0.9129989640229637    0.4976696772564731 Se
   0.3717334534917086    0.2891220053817130    0.3403457024359272 Se
   0.3264049630056001    0.0539957469271122    0.4807561387507578 Se
   0.5971525096782556    0.3926730147838438    0.4586535988030481 Se
   0.6857953916014914    0.5760480223319874    0.4762186861054079 Se
   0.8637450138749374    0.7424154530853637    0.4892062254518549 Se
   0.9843657191332355    0.9139373818704200    0.4860253308138777 Se
   0.6331253381899319    0.0674291757463505    0.4792726122599364 Se
   0.7460405438494198    0.2258341083969629    0.4961293490756878 Se
   0.8476642289429589    0.4179110147769531    0.4853370279825507 Se
   0.0167508077586320    0.5485618995825808    0.4679891236124057 Se
   0.8343040781000988    0.0531697578845686    0.4835694930419099 Se
   0.9967893554094711    0.2248562497993962    0.4780129512530905 Se
