Bi9 Se12
1.0
   2.1367900099999999   -3.7010288600000001   -0.0000000000000000
   2.1367900099999999    3.7010288600000001    0.0000000000000000
   0.0000000000000000    0.0000000000000000   36.5250351500000008
Bi Se
9 12
direct
   0.0000000000000000    0.0000000000000000    0.0000000000000000 Bi
   0.3333333300000000    0.6666666700000000    0.2374088800000000 Bi
   0.3333333300000000    0.6666666700000000    0.0959244500000000 Bi
   0.6666666700000000    0.3333333300000000    0.3333333300000000 Bi
   0.0000000000000000    0.0000000000000000    0.5707422100000000 Bi
   0.0000000000000000    0.0000000000000000    0.4292577900000000 Bi
   0.3333333300000000    0.6666666700000000    0.6666666700000000 Bi
   0.6666666700000000    0.3333333300000000    0.9040755500000000 Bi
   0.6666666700000000    0.3333333300000000    0.7625911200000000 Bi
   0.6666666700000000    0.3333333300000000    0.1990682100000000 Se
   0.0000000000000000    0.0000000000000000    0.1342651200000000 Se
   0.6666666700000000    0.3333333300000000    0.0439231600000000 Se
   0.0000000000000000    0.0000000000000000    0.2894101700000000 Se
   0.3333333300000000    0.6666666700000000    0.5324015400000000 Se
   0.6666666700000000    0.3333333300000000    0.4675984600000000 Se
   0.3333333300000000    0.6666666700000000    0.3772565000000000 Se
   0.6666666700000000    0.3333333300000000    0.6227435000000000 Se
   0.0000000000000000    0.0000000000000000    0.8657348800000000 Se
   0.3333333300000000    0.6666666700000000    0.8009317900000000 Se
   0.0000000000000000    0.0000000000000000    0.7105898300000000 Se
   0.3333333300000000    0.6666666700000000    0.9560768400000000 Se
