Bi2 Se4
1.0
   4.3976474205389691   -2.8836499107723790   -0.0161395940644332
   4.3976474205389691    2.8836499107723790   -0.0161395940644332
   2.5237560830114854    0.0000000000000000    4.6136369681940987
Bi Se
2 4
direct
   0.6289686900000000    0.6289686900000000    0.6289686900000000 Bi
   0.3710313100000000    0.3710313100000000    0.3710313100000000 Bi
   0.0000000000000000    0.0000000000000000   -0.0000000000000000 Se
   0.0000000000000000    0.0000000000000000    0.5000000000000000 Se
   0.5000000000000000    0.0000000000000000   -0.0000000000000000 Se
   0.0000000000000000    0.5000000000000000   -0.0000000000000000 Se
