Bi6 Se9
1.0
   2.0713334500000000   -3.5876547799999998   -0.0000000000000000
   2.0713334500000000    3.5876547799999998    0.0000000000000000
  -0.0000000000000000   -0.0000000000000000   28.4931782799999986
Bi Se
6 9
direct
   0.1821706300000000    0.5251695199999999    0.5673429400000000 Bi
   0.1821706300000000    0.5251695199999999    0.7659904000000000 Bi
   0.8488373000000000    0.8585028500000000    0.9006762699999999 Bi
   0.8488373000000000    0.8585028500000000    0.0993237300000000 Bi
   0.5155039700000000    0.1918361800000000    0.2340096000000000 Bi
   0.5155039700000000    0.1918361800000000    0.4326570600000000 Bi
   0.5155039700000000    0.1918361800000000    0.8333333300000000 Se
   0.8488373000000000    0.8585028500000000    0.7107201000000000 Se
   0.5155039700000000    0.1918361800000000    0.6226132400000000 Se
   0.1821706300000000    0.5251695199999999    0.1666666700000000 Se
   0.5155039700000000    0.1918361800000000    0.0440534300000000 Se
   0.1821706300000000    0.5251695199999999    0.9559465700000001 Se
   0.8488373000000000    0.8585028500000000    0.5000000000000000 Se
   0.1821706300000000    0.5251695199999999    0.3773867600000000 Se
   0.8488373000000000    0.8585028500000000    0.2892799000000000 Se
