Nb6 Se2
1.0
   2.8835400464065861   -4.9944378660357254    0.0000000000000000
   2.8835400464065861    4.9944378660357254    0.0000000000000000
   0.0000000000000000    0.0000000000000000    4.9253559999999998
Nb Se
6 2
direct
   0.3210499999999999    0.1605250000000000    0.7500000000000000 Nb
   0.8394750000000000    0.1605250000000000    0.7500000000000000 Nb
   0.8394750000000000    0.6789500000000001    0.7500000000000000 Nb
   0.6789500000000001    0.8394750000000000    0.2500000000000000 Nb
   0.1605250000000000    0.8394750000000000    0.2500000000000000 Nb
   0.1605250000000000    0.3210499999999999    0.2500000000000000 Nb
   0.6666666666666666    0.3333333333333333    0.2500000000000000 Se
   0.3333333333333334    0.6666666666666667    0.7500000000000000 Se
