Bi288 Se216
1.0
  17.7746670000000009    0.0000000000000000    0.0000000000000000
   0.0000000000000000   21.9862549999999999    0.0000000000000000
   0.0000000000000000    0.0000000000000000   41.6504580000000004
Bi Se
288 216
direct
   0.8272166223986080    0.4741780717088926    0.2760161724992316 Bi
   0.0842693705597973    0.1003504234804881    0.2362835962091941 Bi
   0.5096753711335351    0.2707655305553401    0.2386643623462676 Bi
   0.7500056119194807    0.6445208608742143    0.3295209862998386 Bi
  -0.0076895392751943    0.4550479379048410    0.2101174973874237 Bi
   0.2693878878293473    0.9300810892987460    0.2150509365347195 Bi
   0.0253593499107466    0.9545736643189120    0.0968983342272011 Bi
   0.9064642392456637    0.3483517315704744    0.2210487097164694 Bi
   0.6252494069227851    0.4526814593936075    0.2539371835959163 Bi
   0.2822044429861893    0.5972640633886944    0.2971299859415712 Bi
   0.7138136540054449    0.7812335479598504    0.2228702983290124 Bi
   0.6043263707837677    0.7625764369602737    0.4226604182839958 Bi
   0.9548927133205927    0.2678359729749337    0.3428269624310014 Bi
   0.4228096087538518    0.2129202995234978    0.3009666784456488 Bi
   0.4313470401442682    0.3614931237721021    0.2941408231333255 Bi
   0.4890595137450395    0.4828016412981656    0.2977398231731330 Bi
   0.8729840058325705    0.8638988313380337    0.1955839237109950 Bi
   0.1938804254391939    0.9814540948424367    0.2964601253604462 Bi
   0.5270883555793197    0.8802908908315672    0.2584293310772237 Bi
   0.6567661717656933    0.3513977255335208    0.3464283634047914 Bi
   0.4335231709263527    0.2564493134460598    0.4163915796556187 Bi
   0.2503664344316548    0.2814972354318641    0.2966041813993978 Bi
   0.6540206913580997    0.1844388687386733    0.1628073333551338 Bi
   0.9278148502022568    0.1222486503499573    0.3440394340921774 Bi
   0.2179067545963027    0.4440920020258112    0.9762413657011887 Bi
   0.2761030628590679    0.8818282149461107    0.0624262042928796 Bi
   0.1781878670357087    0.2943707329874961    0.0526035031835664 Bi
   0.3359404707835033    0.2508130647988936    0.0480357262818094 Bi
   0.2212187716371845    0.5305041718109792    0.1425384085812454 Bi
   0.5411083088082607    0.9414108951251589    0.1920771195361165 Bi
   0.0232947261402984    0.0163330226088981    0.0132291702530618 Bi
   0.2644291451423534    0.3333855629346608    0.9791416939520809 Bi
   0.3079438844058232    0.3945105703540689    0.0498056948137281 Bi
   0.4519375806027758    0.5022774456131797    0.1306725126528021 Bi
   0.6680800264781332    0.5398736619765394    0.9810000168545565 Bi
   0.7845772863142809    0.6277376479077497    0.1059136012381905 Bi
   0.2416118400417853    0.9927384177068809    0.9824261716401775 Bi
   0.5317697372333333    0.5284437936337952    0.0455445171815398 Bi
   0.6682938138869212    0.6860104187820982    0.1564359748457028 Bi
   0.8481115286154165    0.4720221793115744    0.1714024369191811 Bi
   0.8648938402052765    0.5505166750772243    0.0408838241346590 Bi
   0.9457786185248928    0.6312034496097676    0.9460808330126886 Bi
   0.7196703038093485    0.9025957353810369    0.0436297723304747 Bi
   0.4948351493729812    0.9983100805480516    0.0350874893140431 Bi
   0.8348454573016755    0.4127515122516317    0.9870263611506986 Bi
   0.0404034573474710    0.8152593518086640    0.0470830356775429 Bi
   0.8483196900397628    0.0114495624652766    0.0714246647659913 Bi
   0.8802752816691305    0.2150934754463641    0.0061177958715364 Bi
   0.9397419372188520    0.6113546850066098    0.2482085551136076 Bi
   0.2132321241236193    0.6495876628375319    0.3741351415631492 Bi
   0.2331711755837676    0.6541496039229965    0.1788321271281099 Bi
   0.2392523021668986    0.3615640771927734    0.2413322801876513 Bi
   0.3128829361472708    0.4529470798915050    0.2865778810883664 Bi
   0.1448139647285657    0.0610513250210188    0.0778387599003113 Bi
   0.3483806475811896    0.3269833812079411    0.1769169020902483 Bi
   0.7223426464191988    0.2656136754531411    0.2221276894482169 Bi
   0.7355805878107309    0.2700832861258091    0.1226392276406661 Bi
   0.3690370120576661    0.6296843186800117    0.1427643364690011 Bi
   0.4798902843018100    0.7145555257136789    0.1015909596960494 Bi
   0.3940805192018506    0.7528749211723416    0.1712663039623718 Bi
   0.5282124272707893    0.1226566325188169    0.2093981775662587 Bi
   0.8748799625894539    0.0189020367497784    0.2423910920739455 Bi
   0.8888324040050933    0.1768695942078358    0.0992562914914405 Bi
   0.0367067917503040    0.3193049475683785    0.1053541836202617 Bi
   0.0881304836821978    0.4381951360065641    0.1418387764187371 Bi
   0.2189768168371312    0.5473919955899720    0.0450422417923952 Bi
   0.2441969798927879    0.7585693880108277    0.1215139098830558 Bi
   0.8389299220064150    0.8616064900548093    0.1054562233145191 Bi
   0.0906723034529986    0.7242161068358390    0.1797428013876822 Bi
   0.8548233280544721    0.4043826472493838    0.0951785452155172 Bi
   0.3826637089741259    1.0043547661936969    0.1450228950663640 Bi
   0.0719462142385002    0.9475329018061511    0.2058363920031804 Bi
   0.2155444037291951    0.1795130639574589    0.0263831432537909 Bi
   0.3001310798115093    0.7567045865701094    0.3404260284484747 Bi
   0.2886304424156019    0.2631553213587307    0.1128489391401170 Bi
   0.6034712211486156    0.0574022269822669    0.1113358705443287 Bi
  -0.0170269293933889    0.2089259858034031    0.2600787727232195 Bi
   0.4108572048072687    0.5185876357751695    0.2354667984683386 Bi
   0.3756447307845486    0.6647334891731220    0.2296270067426389 Bi
   0.2477419126895598    0.4495385867215677    0.1973037127226789 Bi
   0.1794328973926769    0.3345349173836108    0.1740319398168443 Bi
   0.3250463145104209    0.4104750900050964    0.1227712790097050 Bi
   0.4649752369481803    0.6107270201314412    0.9586641280151110 Bi
   0.6781842945355883    0.5074033754270566    0.0935487912281781 Bi
   0.1436825792573217    0.0465909269222976    0.1714125208419077 Bi
   0.2983600199092338    0.1289510196256707    0.0855008605187487 Bi
   0.6901901453343683    0.2006953890055400    0.0403904322012497 Bi
   0.9053559203106309    0.1258354367308120    0.1990907278858735 Bi
   0.8431831662444084    0.7414223113486131    0.2801481798831600 Bi
   0.0989886336548527    0.2770735625507846    0.2984072828202754 Bi
   0.0487544436134865    0.7874510688609769    0.2425063369051068 Bi
   0.7792719829856728    0.0832151723883854    0.1482122957687524 Bi
   0.0205522275044590    0.5757051394155122    0.1021945544992567 Bi
   0.6342678599829746    0.4607742428167052    0.1734019347398293 Bi
   0.9093391172954183    0.6982089491821141    0.1465993483192910 Bi
   0.0946369346891281    0.1932807565453962    0.0885512471435488 Bi
   0.9223745232470459    0.5249552504507931    0.5461236464674650 Bi
   0.3278834984644157    0.6704552457887895    0.5812493106318303 Bi
   0.2794915932883580    0.1937974429933611    0.5808099397130279 Bi
   0.2656443577817801    0.3459920755035362    0.5175741404812404 Bi
   0.2333692102361186    0.7383067284537544    0.7536027575014901 Bi
   0.1370889254915437    0.7557585409611596    0.4603934967533850 Bi
   0.8264514885145247    0.8732091936530345    0.6566290339472378 Bi
   0.2164811301387531    0.1352822479317191    0.4233686938088412 Bi
   0.4046365538099814    0.1711069029263965    0.6624657044587601 Bi
   0.6108468867518024    0.1841818900035500    0.6064159006366749 Bi
   0.8987960224515036    0.3996756155152389    0.6126151121795588 Bi
   0.6811210584142027    0.4718084093903214    0.6173353483892062 Bi
   0.2849161674871321    0.8865357015098750    0.6009921907701472 Bi
   0.4433422015726089    0.1138875174512440    0.5401837357946940 Bi
   0.5723482752166327    0.3176912120777277    0.6798484664922532 Bi
   0.7010426693225814    0.6544406948795963    0.6182981229161995 Bi
   0.1638106637947141    0.5422114862217327    0.5970138431611004 Bi
   0.9002475264374854    0.5260877762038146    0.7192862080892364 Bi
   0.7145731619050866    0.8217543187778000    0.5920967303648859 Bi
   0.5415386966180575    0.9782748358008220    0.6712675284387030 Bi
   0.0125286735329556    0.2828594501428279    0.6811689801826429 Bi
   0.0606694910233761    0.1301426732292516    0.5940006710130294 Bi
   0.8968156759279935    0.8560575686946231    0.5564020448466617 Bi
   0.9780436392985590    0.2496828131939705    0.5576649361214707 Bi
   0.2998092735014389    0.8391379068422521    0.2760017668953364 Bi
   0.2592296103212510    0.8995256354481470    0.3546971800406133 Bi
   0.9143912513241458    0.1471305595245757    0.4450083117933541 Bi
   0.1932581915599319    0.2072303809812085    0.3452927216310563 Bi
   0.3536263154747147    0.8044798898220730    0.5190411111445642 Bi
   0.5315413222649966    0.8705256988968790    0.4963666906135822 Bi
  -0.0132181379262970    0.9339107546965139    0.3193530308838380 Bi
   0.8399032173148447    0.4582317452426527    0.3530621439985126 Bi
   0.1330708474032172    0.3549149229825634    0.3624834089459473 Bi
   0.0276715732564779    0.5279207395711547    0.4898241455111970 Bi
   0.0246417555951962    0.8716764178346881    0.5006427540364622 Bi
   0.6834052080975694    0.0559940744797147    0.2967290299664892 Bi
   0.2985248612533782    0.1265731703739450    0.2996317591513639 Bi
   0.5840109409644636    0.1198116732476722    0.3777293397349916 Bi
   0.1480618455468111    0.4112624000767753    0.2933869298628121 Bi
   0.8659121433892404    0.6171719558424116    0.4914423750154200 Bi
   0.0044922923169250    0.8505222922230276    0.4281801655098247 Bi
   0.8763708484665282    0.6774914600053533    0.3795060308820614 Bi
   0.6243717533498659    0.7188491173235279    0.5243303687080704 Bi
   0.4778508649416610    0.8183658381111290    0.3463131185736301 Bi
   0.5630654008876791    0.5261150659809958    0.3684737392323513 Bi
   0.0022637836196875    0.5462867596141316    0.4117073574557091 Bi
   0.1400076862199444    0.9918833380218687    0.4118057957489928 Bi
   0.8141024526647953    0.2293423777719307    0.3724064690957300 Bi
   0.2882383113000092    0.6630460712840818    0.4882275244128168 Bi
   0.2488406674510414    0.5251462788910617    0.3609300046592525 Bi
   0.0545366616432252    0.1081930506127578    0.3984830130799523 Bi
   0.3694342065592565    0.4580907480605496    0.4008215227789332 Bi
   0.3927224065576024    0.8051530376592103    0.4364441802776815 Bi
   0.9154545623836440    0.9294306829425930    0.4597932632577534 Bi
   0.1627152846238976    0.0696676173363767    0.3545003034540461 Bi
   0.7586302460687450    0.1078623894792451    0.4108142100142093 Bi
   0.4827696631391182    0.3486360000827790    0.5237181305425260 Bi
   0.4484376556815383    0.5138756009152081    0.4792552341201147 Bi
   0.7343203672957699    0.8913205091089865    0.3070146311476335 Bi
   0.6040957054216544    0.9778700374393001    0.5819191712129552 Bi
   0.4342236059893556    0.9786296029041781    0.4355726412420243 Bi
   0.0775682604911811    0.3919703469281149    0.5174564947160966 Bi
   0.2467556776169140    0.0487331744310252    0.4703501699789231 Bi
   0.6277192140927310    0.6131239722271937    0.2497523556643723 Bi
   0.1958157640871697    0.8274988168744518    0.4013041105094211 Bi
   0.2756214785908507    0.0618331771372614    0.6433734774297081 Bi
   0.7618426831850070    0.8857897809335878    0.4277311908550922 Bi
   0.8693664978364996    0.0740694583957113    0.5639553831556907 Bi
   0.7026348229196080    0.4805274931997287    0.5293843347412891 Bi
   0.1258065762919778    0.6300072477099897    0.3145247526449769 Bi
   0.0934262228372548    0.5185103147398227    0.3447237002771975 Bi
   0.4323720945095624    0.9645890125444283    0.3253313565003295 Bi
   0.9680800208521487    0.7462935365754650    0.4859298305915388 Bi
   0.1644109563346531    0.1600872909006104    0.4975143370572299 Bi
   0.9514271069044501    0.4073203917629447    0.4447250015834160 Bi
   0.3738927992293751    0.6002068110280719    0.3598351787632203 Bi
   0.7549508522438142    0.2001168457292977    0.4879634216747388 Bi
   0.2359436607166818    0.9081628499260105    0.4598724940791768 Bi
   0.1215685222119773    0.9917150510625843    0.5190915307581973 Bi
   0.8213599725947045    0.2237670762938027    0.6264300863150173 Bi
   0.2385715580494419    0.4721813696784651    0.6647177805343701 Bi
   0.3022577019305059    0.9874714907109009    0.5359893041272200 Bi
   0.8249887325596592    0.8323882352860913    0.4907557078964174 Bi
   0.2796007373865288    0.2401941576680522    0.4578941244775748 Bi
   0.5065889560687691    0.8324564597290445    0.6132801708927186 Bi
   0.1387198983812186    0.2432451547569152    0.2354684791221264 Bi
   0.3822794542367516    0.1443824789624245    0.4492579649424264 Bi
   0.8370227132806483    0.7065914590729526    0.5689445239713811 Bi
   0.6601361364463256    0.5875534510083686    0.4324994457443901 Bi
   0.2871924407922804    1.0016530782527537    0.4044517349605136 Bi
   0.7021453622731723    0.0094186117644865    0.4510850757031292 Bi
   0.6660265421568798    0.3060157357403523    0.4625303279978338 Bi
   0.2750706947139994    0.4808185841563286    0.5224480364657695 Bi
   0.2166364073093465    0.3534985835468569    0.4332485371469385 Bi
   0.3581782994865670    0.1654647414941744    0.3684233196187183 Bi
   0.0470782378088996    0.7027436004903973    0.4127493628041257 Bi
   0.7497693205729256    0.5436260063389604    0.8761008102239837 Bi
   0.4716712836307989    0.8313148373836290    0.0573155762176733 Bi
   0.8515546310937921    0.2964324756535390    0.8989961166813581 Bi
   0.2799062283417180    0.7490452557745736    0.0033239010240896 Bi
   0.1392931861958370    0.4093293741931038    0.0642624386027160 Bi
   0.8048308303047252    0.7507963498103702    0.0168703787122821 Bi
   0.0731152938055042    0.0662313795596385    0.9178746605859652 Bi
   0.0332337027748537    0.5360576414673622    0.9121892489153420 Bi
   0.4923653422030354    0.1627375830945288    0.0054951376525079 Bi
   0.4020559147465322    0.4509285460393323    0.9841740515794569 Bi
   0.8231884175382864    0.9275658815018747    0.9844333524495698 Bi
   0.6303352968581634    0.8858761985613284    0.1071263129927647 Bi
   0.5230989700116464    0.2769284719021043    0.9481336315677490 Bi
   0.6625496837718535    0.1683069717876009    0.9453293406761577 Bi
   0.6266559030332327    0.3324900034134963    0.0088495305381756 Bi
   0.7693139905237044    0.3778369713259488    0.8489798599573622 Bi
   0.7267815481437712    0.7169206397360532    0.9273991656946486 Bi
   0.6272185014774116    0.0630503011995449    0.0006685160580947 Bi
   0.4212410842914807    0.9815723505435555    0.9556293474611972 Bi
   0.5987566461863955    0.3434664066254121    0.8099286687315659 Bi
   0.4969021360568949    0.7993994429701649    0.8594119181114407 Bi
   0.9667691664772117    0.5927339603766080    0.8501179026650800 Bi
   0.6180650247906192    0.9416883411931681    0.9107150754500707 Bi
   0.1545137245046560    0.1383268774059065    0.8381732561020098 Bi
   0.9123490189717759    0.7682572589101692    0.7002516034757650 Bi
   0.0308204930083922    0.8568125858633042    0.6338585760569548 Bi
   0.1175678846754204    0.3935072162130385    0.7832903061954325 Bi
   0.2268711982058511    0.3040922612786944    0.6903645573357201 Bi
   0.2271845655392588    0.5017089085885704    0.7561189363151781 Bi
   0.4455948457431017    0.7596063995437150    0.7023692272483535 Bi
   0.3919696498392909    1.0008025468639385    0.8289632733450374 Bi
   0.8748068247917106    0.1603119767327360    0.7387625845554928 Bi
   0.4030095191094157    0.3257444253239126    0.8812316061446431 Bi
   0.3588061593502708    0.5974823816061444    0.7759842640866037 Bi
   0.4275455624569507    0.5550877127550826    0.6202068654323082 Bi
   0.4415452621419012    0.9358028459144133    0.7515883738901502 Bi
   0.3103281766122538    0.8856396871590910    0.6899419929547954 Bi
   0.4043569423832244    0.3809689280871162    0.7192333875416208 Bi
   0.5334417798094333    0.4632212261706234    0.6744511668995333 Bi
   0.3149572366109587    0.6454441650021797    0.7038049857699045 Bi
   0.7087783979300428    0.6726202347785013    0.7092551059102400 Bi
   0.0145151523795073    0.6536993225995059    0.7370099027482483 Bi
   0.7324637924299792    1.0062059227458244    0.6242980569385336 Bi
   0.0359579732211017    0.2925586917826615    0.8286007323136759 Bi
   0.6783024402088658    0.2958907735764913    0.5517778459963153 Bi
  -0.0016313667085859    0.6439295823686207    0.6468356242325114 Bi
   0.6686426249223122    0.8296046780136044    0.6963596894900892 Bi
   0.7192483549762142    0.1364497955654567    0.6888063511810603 Bi
   0.2890580172331780    0.8251064130748961    0.8973370712994321 Bi
   0.9033699478026789    0.0845505521517876    0.8910778364069850 Bi
   0.2361748886772394    0.3245477685945151    0.8279740885442365 Bi
   0.2283378923498257    0.5934116565099423    0.8260245301504248 Bi
   0.4761821979562261    0.4509067142175873    0.8792388309391460 Bi
   0.3895358489697726    0.8165328747437888    0.9557637997642188 Bi
   0.4322972689164866    0.7198861288564151    0.7904066745196415 Bi
   0.1830329648369784    0.9801123474643589    0.8059719295283619 Bi
   0.2131724886885363    0.2587139101224833    0.7623925768115204 Bi
   0.5582456200163974    0.5326737090968879    0.7500949929530187 Bi
   0.7213412211885601    0.4220250333674380    0.7867476511302709 Bi
   0.8754706909558418    0.5192880733894881    0.7836432434908639 Bi
   0.6023516502446994    0.0879585904921052    0.8478130060418543 Bi
   0.5482836893653197    0.3991043495129116    0.7613481705291212 Bi
   0.5975526855158524    0.4046932958796303    0.9154401135276833 Bi
   0.7103367956204186    0.3977944402082119    0.6779733370518999 Bi
   0.9303521691855042    0.3998152482084830    0.7821306550818721 Bi
   0.7014477402023903    0.2470739104954436    0.7468177180668698 Bi
   0.8419792055738653    0.9249142248190972    0.8690420643153551 Bi
   0.7923636487817184    0.1382700237034456    0.8123127961762149 Bi
   0.0555504077797913    0.5084813216257157    0.7932877952986735 Bi
   0.1024778692056509    0.1227030251400250    0.7044892519549245 Bi
   0.1971541857858715    0.3176157103608596    0.9155817686326523 Bi
   0.3790658919236012    0.1399083199935596    0.9073537678745334 Bi
   0.0607775099246585    0.4540036490980388    0.7250460487133179 Bi
   0.9713543437972706    0.7825389089683532    0.8758030944101504 Bi
   0.1488123518713459    0.3457096263097103    0.6125790981698208 Bi
   0.2165593313224940    0.5756460115649528    0.9272238975139242 Bi
   0.5963262209075423    0.8013915967043954    0.9964956447777837 Bi
   0.2621894407360768    0.7691259834837720    0.8341636963511901 Bi
   0.1209856702238079    0.9352843401479698    0.7119633594425301 Bi
   0.3882165556181728    0.3154611824524004    0.8164592091640385 Bi
   0.5542444198813964    0.5732854458387752    0.8599449254555618 Bi
   0.6072068748179642    0.6818487277619586    0.7649615761728239 Bi
   0.7396425485777034    0.7313069006067655    0.8267976308927985 Bi
   0.0189087649293233    0.8441364843626166    0.7797177164294328 Bi
   0.3309716013245143    0.5655715354888770    0.8810203239541807 Bi
   0.9515452525777276    0.9120652880629284    0.9346043685762111 Bi
   0.6108862686428950    0.0885253081982357    0.7587983786396778 Bi
   0.3263498551055837    0.4420761971513566    0.9223331949915172 Bi
   0.1767453646248338    0.6856511033825451    0.8925616136081866 Bi
   0.0014929112314734    0.0441254774858201    0.8209921725230488 Bi
   0.6545101520045354    0.9109646003832850    0.8185264133229939 Bi
   0.0073123732782167    0.9711749454375017    0.5726347595025246 Bi
   0.2824846170113904    0.4621387316757674    0.8270161158852083 Bi
   0.0344184788384502    0.3194550413428754    0.9645320106684062 Bi
   0.9462512012180030    1.0062150193382184    0.7116008184111685 Bi
   0.4329133142128626    0.5098048758190060    0.8171818902927791 Bi
   0.8305472051881478    0.6629505570639475    0.8862495581681239 Se
   0.0157975392731689    0.1758030187496688    0.1612328008493928 Se
   0.1431689268777862    0.1019955422148975    0.9787767519867369 Se
   0.9271678619914511    0.7261036497575417    0.8076669889200258 Se
   0.3890311981653440    0.9092908273828354    0.0239546705584846 Se
   0.3100806332968151    0.1261342597909466    0.1568645415615838 Se
   0.1898015867188961    0.1688072843692571    0.8992290072776631 Se
   0.9654920680089253    0.3415338355713604    0.0145139340364517 Se
   0.1795184123561921    0.7699310319106187    0.0580466606153527 Se
   0.4870437235195461    0.6875022599346728    0.0142220044735162 Se
   0.3698302758639586    0.5990242540168846    0.0666348014708506 Se
   0.6738522865154097    0.7898571175491232    0.0525077059176636 Se
   0.3546800623606619    0.1133803824252925    0.9833313237515900 Se
   0.5255395220624950    0.0855225230490595    0.9111376398309954 Se
   0.7701916440966236    0.3206244082950916    0.9666712428468375 Se
   0.5617916780100578    0.4224161868403691    0.0751720425259189 Se
   0.7858600107670091    0.6480048557610197    0.9801260768849168 Se
   0.6645187783264801    0.8413301856091453    0.8665787060492829 Se
   0.7187813982675456    0.8166010991867420    0.9614348058309466 Se
   0.8508626350074519    0.3155348648507897    0.1488816761630808 Se
   0.6547858252421832    0.5884267238781684    0.9151135865060596 Se
   0.7710918016073099    0.4600101290556304    0.0443368473883288 Se
   0.5391909733104986    0.9260740403493001    0.9726999880769618 Se
   0.8944021286024656    0.4431082055584273    0.8516160854701765 Se
   0.1782711316054472    0.9496205697605162    0.1249069097871625 Se
   0.9327488385577068    0.9701197407198270    0.1826829851426844 Se
   0.9707973713375334    0.6587615762666266    0.0227306504048527 Se
   0.1305250894433072    0.9475510949909387    0.0498577950811489 Se
   0.3499598614140000    0.6687087000491898    0.9441696895625974 Se
  -0.0173396778685080    0.1222650242162660    0.0474441361485149 Se
   0.7830526445305558    0.1352622354284529    0.9983995854259273 Se
   0.5886917600200331    0.2553190618411366    0.0670616875329438 Se
   0.4517654254788571    0.3470522833470275    0.0102967895335029 Se
   0.5980927800222643    0.6415781132348369    0.0981439387773359 Se
   0.8988297783581544    0.7627174341423767    0.0773744192680906 Se
   0.3650048690082351    0.8250882198901086    0.1014572276732227 Se
   0.6581782938605826    0.0396618705641320    0.2076363722098806 Se
   0.3048861618617102    0.0256911420339662    0.0569266249125040 Se
   0.8121277321257270    0.2707273248672864    0.0615683505809228 Se
   0.8765846358753162    0.5197383547129786    0.1097666200933493 Se
   0.9033080619738193    0.7953150729853721    0.9318432944963055 Se
   0.2351115776177410    0.0462120538490980    0.2449432848973714 Se
   0.7624502895047205    0.1302159007980213    0.0939259779568330 Se
   0.6497899510578735    0.1807401942713755    0.3291272331267042 Se
   0.7185000990454561    0.4031637038686215    0.1247530099188825 Se
   0.6030155164088307    0.7101755164760892    0.2103974462897863 Se
   0.5035121051775541    0.9737674742697199    0.0964421567705210 Se
  -0.0039930424575605    0.2586233990281656    0.9015579132407140 Se
   0.3460807451413858    0.1987159705006605    0.2310541219018528 Se
   0.2822410118850610    0.0306523780425543    0.3371703619681685 Se
   0.6685132272801511    0.4883187245849737    0.3250744565641991 Se
   0.7355355799351966    0.5684688001662856    0.1752708217518280 Se
   0.3823329010889487    0.0184261485186995    0.2138360639395610 Se
   0.7510464190412119    0.9296171630866649    0.2233980236183717 Se
   0.2582445004454936    0.7976847353039433    0.1956458678077442 Se
   0.2992511758448133    0.3573391648554972    0.3841902530819709 Se
   0.0696328094360361    0.1441255002273011    0.3112042609471425 Se
   0.9802433992152990    0.7035850352868190    0.2884914254724402 Se
   0.0843605115077543    0.7073919592036024    0.1174918652755271 Se
   0.9778579818119799    0.6056010903175643    0.1662454708181120 Se
   0.5912178270343967    0.9070439690615796    0.3176603724261568 Se
   0.5627559717433807    0.1026577741411623    0.0497992122919753 Se
   0.6386279979253620    0.1709977438176715    0.2422950547146444 Se
   0.5519495808275902    0.8357130398060060    0.1569706628436115 Se
   0.7529029939070025    0.8123029592806961    0.1580678896736261 Se
   0.9003938020329720    0.5387229430387304    0.3120950074546600 Se
   0.7615445060095921    0.3819668242727104    0.2402110440178113 Se
   0.7904395621026261    0.3733464384907753    0.3084335831313068 Se
   0.5304903883712702    0.5571162528588884    0.1850961638885220 Se
   0.6035049770552664    0.6403409766692872    0.3824591796805692 Se
   0.9790900724047319    0.8343303577621565    0.1370217825695938 Se
   0.6028861187666695    0.3198457399861868    0.2762130490857988 Se
   0.4428116712397481    0.5741905567819531    0.4156376863851053 Se
   0.3970819819015456    0.8950955949523919    0.3852754752420730 Se
   0.9804965685151795    0.3668241817444581    0.2829260605009434 Se
   0.0884399128264963    0.5695740361421261    0.2345554039285714 Se
   0.8205442048506449    0.5654942144535301    0.4168837711220366 Se
   0.6304590685158828    0.4023622940787324    0.5606036793160833 Se
   0.2445103472261956    0.7050723281431966    0.2600067447037437 Se
   0.1066844177727774    0.8247107113057681    0.3359987061846955 Se
   0.0492268012672192    0.2705253805161452    0.3910209102622593 Se
   0.5018395000030099    0.4014762859795813    0.3747329741247983 Se
   0.7736572505127663    0.6289656878809056    0.2671159102260052 Se
   0.6656327232459545    0.7674613070757161    0.2865682773524363 Se
   0.4013014702328882    0.8912704778508209    0.1654565239114537 Se
   0.5090936443422541    0.1370010490645178    0.1447316617742835 Se
   0.6053052920766392    0.2778067478977206    0.4024541578870514 Se
   0.5432439325023641    0.3709886017423158    0.1924271757107689 Se
   0.9461218035758420    0.8761974242543806    0.2511785104499932 Se
   0.8905989631198155    0.7476261873611491    0.2049542888580001 Se
   0.8121952439390285    0.1529105343315631    0.2682587548016879 Se
   0.9463018350779793    0.4006666892565378    0.3765888960932915 Se
   0.8812654549308856    0.2642901212598507    0.4488810183071697 Se
   0.8422717567648385    0.4840478744561091    0.4927772943097048 Se
   0.0427371719537699    0.9996017966679637    0.2658338114793360 Se
   0.6563385969481172    0.0070670516647787    0.3725721335405243 Se
   0.7022410040086827    0.8059580860860569    0.3670835984564684 Se
   0.3871644965275580    0.8991799649371847    0.4835769152886626 Se
   0.5522792635158791    0.2435894607790185    0.4921842636160208 Se
   0.7407171116060852    0.4060991742340839    0.3932633826019392 Se
   0.5741598422068892    0.5820227228329700    0.4996199561599059 Se
   0.4585452993296583    0.7742246235204677    0.2815575281309032 Se
   0.8615013715868770    0.8618430014570466    0.3450814394405939 Se
   0.0432064353160596    0.3152214872428251    0.4663093980863308 Se
  -0.0176522013042495    0.6468359436384232    0.5291130292012636 Se
   0.5003885586154723    0.7434190133790406    0.4856945390612511 Se
   0.3734505968522505    0.7483357215678613    0.6483218023676955 Se
   0.8373658983315975    0.9988331346106920    0.3020446978038033 Se
   0.4282223683852980    0.7167296112957846    0.3847616753698123 Se
   0.5121586806661413    0.0382637243132130    0.2906018464430811 Se
   0.4079333806928704    0.3997606686541205    0.4703405662429931 Se
   0.1568878899390914    0.6054100618772956    0.4483792231048216 Se
   0.6149088475187749    0.4257546362488746    0.4690560665623413 Se
   0.9322537519268294    0.7764214505835577    0.6038925190210394 Se
   0.9790788204358484    0.9682321977981243    0.3810042136871580 Se
   0.5627165898522881    0.9179098486759114    0.4269917031884740 Se
   0.4712071399143511    0.6235486671104288    0.2731278489182520 Se
   0.7307703711130004    0.7012835974112007    0.4473852364360555 Se
   0.4289880648678256    0.0515376538660176    0.3860005573047961 Se
   0.8178718622407948    0.0591442244256696    0.4861747258577565 Se
   0.1997725189450807    0.6019033255095058    0.5414250186636603 Se
   0.1238172281933608    0.7707815632994341    0.5935060786126289 Se
   0.8990829476580349    0.3552401261606399    0.5336171813524836 Se
   0.0972102599728029    0.4612427173249833    0.4285547112110988 Se
   0.0511372730639623    0.4619977344936644    0.5956333061211476 Se
   0.5323666541826072    0.0160592606608083    0.4975335445290902 Se
   0.7518565608008296    0.9362303857569194    0.5693070650027426 Se
   0.0175346182294161    0.0660403511193698    0.4670560885548966 Se
   0.3505601539539391    0.1964259033655345    0.5115573999210284 Se
   0.6016709061272427    0.5914740823300739    0.6520000332289263 Se
   0.5772991415254081    0.7180668103776655    0.5915709258227124 Se
   0.4017065411126971    0.1396295094366912    0.6018661307397869 Se
   0.2578911886225491    0.7379246715732170    0.4182787137658847 Se
   0.7397494422820973    0.9887541102384194    0.6972504359976066 Se
   0.6655764634015365    0.0993720849685406    0.5553576385642627 Se
   0.8486403711529449    0.6142246599068373    0.6124998673483975 Se
   0.7735784867305813    0.7603250303428210    0.6544057690794181 Se
   0.2290928994619140    0.8860353889282190    0.5255164300954386 Se
   0.3969964669380304    0.9770286026428785    0.6308574085787965 Se
   0.2538601707700066    0.1584521784178342    0.7321264030277891 Se
   0.5976201973291539    0.1169908199463710    0.4441751877014173 Se
   0.8233965789626326    0.2018797653352060    0.5654415612908746 Se
   0.7088740396655532    0.6220659225502478    0.5417875596950219 Se