Bi54 Se81
1.0
  12.5739999999999998    0.0000000000000000    0.0000000000000000
   0.0000000000000000   10.8900000000000006    0.0000000000000000
   0.0000000000000000    0.0000000000000000   29.9280000000000008
Bi Se
54 81
direct
   0.3128065900000000    0.0419054200000000    0.4377599600000000 Bi
   0.9179425800000000    0.1345720800000000    0.6199645800000000 Bi
   0.8506966800000000    0.0296813600000000    0.3678605300000000 Bi
   0.3400548800000000    0.3476069800000000    0.5431816400000000 Bi
   0.1974542700000000    0.9004894400000000    0.5349695900000000 Bi
   0.7079576900000000    0.3565665700000000    0.1746962700000000 Bi
   0.6945427100000000    0.7741717200000000    0.5437393100000000 Bi
   0.2335708600000000    0.6159770400000000    0.5055580100000000 Bi
   0.6773143000000000    0.9394077100000000    0.6325691700000000 Bi
   0.9772093200000000    0.6499292900000000    0.4979908400000000 Bi
   0.1828972500000000    0.8118090000000000    0.6365848000000000 Bi
   0.1687036700000000    0.1224655600000000    0.6179824900000001 Bi
   0.0666096700000000    0.5882764000000000    0.7170118300000000 Bi
   0.8114720900000000    0.1250505100000000    0.7451366600000000 Bi
   0.8247653900000000    0.4461919200000000    0.5429193400000000 Bi
   0.5747391400000000    0.4827777800000000    0.3503588600000000 Bi
   0.9602171100000000    0.8153223100000000    0.7896822400000000 Bi
   0.4168737100000000    0.7117447200000000    0.2786688100000000 Bi
   0.7755328500000001    0.3090560100000000    0.3516817000000000 Bi
   0.9884921300000000    0.4928787900000000    0.3613485700000000 Bi
   0.7185788100000000    0.5049311300000000    0.4410812600000000 Bi
   0.7199427400000000    0.1513838400000000    0.5547567500000000 Bi
   0.1030499400000000    0.1897603300000000    0.3643310600000000 Bi
   0.6355296600000000    0.7618962400000000    0.7577790000000000 Bi
   0.0776252600000000    0.4783700600000000    0.5828391500000000 Bi
   0.8434650900000000    0.2431129500000000    0.4527255400000000 Bi
   0.2666669300000000    0.4336960500000000    0.1853468300000000 Bi
   0.5391752800000000    0.1475904500000000    0.1444673900000000 Bi
   0.5600596500000000    0.1341101900000000    0.7185154400000000 Bi
   0.1858390300000000    0.9324086300000000    0.7362139100000000 Bi
   0.2516534100000000    0.0746933000000000    0.1349341800000000 Bi
   0.4580634600000000    0.4668448100000000    0.4575060100000000 Bi
   0.5270844600000000    0.2777043200000000    0.6169730700000000 Bi
   0.0041450600000000    0.9534664800000000    0.1555780500000000 Bi
   0.4225735600000000    0.9449476600000000    0.2198302600000000 Bi
   0.2841522200000000    0.4680376500000000    0.3040286700000000 Bi
   0.3203475400000000    0.4598365500000000    0.6409573000000000 Bi
   0.8090862100000000    0.5422653800000000    0.2853401500000000 Bi
   0.4858811800000000    0.7960505100000000    0.4802663100000000 Bi
   0.3038595500000000    0.9636776900000000    0.3149619100000000 Bi
   0.9014673100000000    0.6655381100000000    0.1912119100000000 Bi
   0.6964116400000000    0.6399623500000000    0.6512396400000000 Bi
   0.4024192800000000    0.7738843000000000    0.7115099600000000 Bi
   0.0463416600000000    0.2942883400000000    0.7132417800000000 Bi
   0.7272705600000000    0.8326326900000000    0.2906445500000000 Bi
   0.5385279100000000    0.4660578500000000    0.2437242700000000 Bi
   0.3680221100000000    0.2937603300000000    0.3808119500000000 Bi
   0.9766088800000000    0.9007061500000000    0.2872891600000000 Bi
   0.0606577100000000    0.4881992700000000    0.2545272000000000 Bi
   0.7625282300000000    0.0275445400000000    0.1809649800000000 Bi
   0.7089987300000000    0.9304931100000000    0.4547380400000000 Bi
   0.0348648000000000    0.3005886100000000    0.1685538600000000 Bi
   0.5510823900000000    0.4325482100000000    0.7145546000000000 Bi
   0.0750031800000000    0.9337364600000000    0.4196053900000000 Bi
   0.8843073000000000    0.2984481200000000    0.0106164800000000 Se
   0.6110625100000000    0.0654857700000000    0.2655560000000000 Se
   0.9832058200000000    0.5797842100000000    0.0115333500000000 Se
   0.1297972000000000    0.7896978900000000    0.3455707000000000 Se
   0.2157284900000000    0.9504380200000000    0.9689113900000000 Se
   0.0494639700000000    0.1523067000000000    0.9829093200000000 Se
   0.4608000600000000    0.0735023000000000    0.3723269200000000 Se
   0.7375664100000000    0.2685280100000000    0.9434669900000000 Se
   0.5941434700000000    0.5671065199999999    0.9292896300000000 Se
   0.3407046300000000    0.2605124000000000    0.8106565800000000 Se
   0.4254286600000000    0.0804747500000000    0.9104019600000000 Se
   0.2143955800000000    0.7680835600000000    0.0686467500000000 Se
   0.8229751900000000    0.3014912800000000    0.8251463500000000 Se
   0.4307428000000000    0.9383214000000000    0.1341088600000000 Se
   0.2366311400000000    0.6277548200000000    0.1213151600000000 Se
   0.8726300299999999    0.6105996299999999    0.8386170100000000 Se
   0.8155606800000000    0.0834820900000000    0.9120652900000000 Se
   0.0837100400000000    0.7901634500000000    0.2154581000000000 Se
   0.1955272800000000    0.9167594100000001    0.8928331300000000 Se
   0.8808676600000001    0.4628053300000000    0.1258199700000000 Se
   0.8630173400000000    0.6749136800000000    0.4171608500000000 Se
   0.8561006799999999    0.3003002800000000    0.6800494500000001 Se
   0.1387657100000000    0.2602020200000000    0.5384833600000000 Se
   0.5684595200000000    0.5424040400000000    0.1225417700000000 Se
   0.2376053800000000    0.1905445400000000    0.6991446100000001 Se
   0.9850047700000000    0.4121092700000000    0.9141566400000000 Se
   0.1022021600000000    0.3988815400000000    0.8399562300000000 Se
   0.0021958000000000    0.6735390300000000    0.6370776500000001 Se
   0.4817504400000000    0.0418273600000000    0.6453197700000000 Se
   0.3415905800000000    0.6593608800000000    0.4318183600000000 Se
   0.9915905800000000    0.9109026600000000    0.5046421400000000 Se
   0.5583314800000000    0.7464921900000000    0.3478581900000000 Se
   0.7321966000000000    0.5590312200000001    0.7324201400000000 Se
   0.4810227500000000    0.9415693300000000    0.7774137900000000 Se
   0.6334531600000000    0.5500725400000001    0.5714708600000000 Se
   0.4469166500000000    0.9324545500000000    0.0153812500000000 Se
   0.5885700699999999    0.1259963300000000    0.8552278800000001 Se
   0.9491029100000000    0.8296629900000000    0.9270074800000000 Se
   0.3465555900000000    0.5138907300000000    0.7284125200000000 Se
   0.1163838100000000    0.6751561100000000    0.9018400800000000 Se
   0.6414180100000000    0.1563360900000000    0.4733767700000000 Se
   0.6339430600000000    0.8820110200000000    0.9307003500000000 Se
   0.4050922500000000    0.7268356300000000    0.9529029700000000 Se
   0.7144584100000000    0.4890945800000000    0.0289040400000000 Se
   0.3282384300000000    0.2153709800000000    0.9988535800000000 Se
   0.3899928400000000    0.8196437100000000    0.8816656600000000 Se
   0.9726173100000000    0.9268135900000000    0.0074074400000000 Se
   0.3750373800000000    0.3092387500000000    0.2453638700000000 Se
   0.5522991900000001    0.0424224100000000    0.9671525000000000 Se
   0.8534444100000000    0.2256060600000000    0.2258741000000000 Se
   0.3662088400000000    0.2828154300000000    0.1102803400000000 Se
   0.8022936200000000    0.1695169900000000    0.0635481800000000 Se
   0.8180936900000000    0.4416235100000000    0.8793491000000000 Se
   0.7258788000000000    0.8195711700000000    0.0732056900000000 Se
   0.1793637700000000    0.6439899000000000    0.9717084300000000 Se
   0.5374137100000000    0.3237924700000000    0.8411577800000000 Se
   0.1453133400000000    0.7182433400000000    0.7854440700000000 Se
   0.4769373300000000    0.6620101000000000    0.0737195900000000 Se
   0.7756338500000000    0.9277052300000000    0.8105793900000000 Se
   0.3859973000000000    0.7050505100000000    0.6219005600000000 Se
   0.1461388600000000    0.4073039500000000    0.0481221600000000 Se
   0.5733481800000000    0.3543957800000000    0.0273339300000000 Se
   0.8725680000000000    0.9529026600000000    0.6773910700000000 Se
   0.0070645800000000    0.1497603300000000    0.9068544500000000 Se
   0.0635008700000000    0.1322809900000000    0.1020138300000000 Se
   0.0678606600000000    0.0841882500000000    0.7967699100000000 Se
   0.3228145400000000    0.4649164400000000    0.9066920600000000 Se
   0.1863170000000000    0.3294591400000000    0.9803194300000000 Se
   0.6193582000000000    0.7131891600000000    0.0248730300000000 Se
   0.7867361200000000    0.9791643700000000    0.0147216700000000 Se
   0.4029656400000000    0.5075638200000000    0.0276580500000000 Se
   0.2389788500000000    0.2869862300000000    0.8720188500000000 Se
   0.3951367900000000    0.0009100100000000    0.5193380800000000 Se
   0.5975282300000000    0.6335583100000000    0.8571625200000000 Se
   0.3614744700000000    0.5722259000000000    0.8425237200000000 Se
   0.1321647800000000    0.1024371000000000    0.2796067200000000 Se
   0.9889923700000000    0.7327842100000000    0.0640123000000000 Se
   0.6885979000000000    0.7884527099999999    0.1964484800000000 Se
   0.4846588200000000    0.3736308500000000    0.9216890500000000 Se
   0.8343422900000000    0.6785518800000000    0.9534101800000000 Se
   0.0552266600000000    0.3492194700000000    0.4293831900000000 Se
