Bi6 Se9
1.0
   2.0713334500000000   -3.5876547799999998   -0.0000000000000000
   2.0713334500000000    3.5876547799999998    0.0000000000000000
  -0.0000000000000000   -0.0000000000000000   28.3048949500000013
Bi Se
6 9
direct
   0.1821706300000000    0.5251695199999999    0.5677909000000000 Bi
   0.1821706300000000    0.5251695199999999    0.7677597600000000 Bi
   0.8488373000000000    0.8585028500000000    0.9033415600000000 Bi
   0.8488373000000000    0.8585028500000000    0.0966584400000000 Bi
   0.5155039700000000    0.1918361800000000    0.2322402400000000 Bi
   0.5155039700000000    0.1918361800000000    0.4322091000000000 Bi
   0.5155039700000000    0.1918361800000000    0.8355506600000000 Se
   0.8488373000000000    0.8585028500000000    0.7121218000000000 Se
   0.5155039700000000    0.1918361800000000    0.6234288600000000 Se
   0.1821706300000000    0.5251695199999999    0.1644493400000000 Se
   0.5155039700000000    0.1918361800000000    0.0410204900000000 Se
   0.1821706300000000    0.5251695199999999    0.9589795100000000 Se
   0.8488373000000000    0.8585028500000000    0.5000000000000000 Se
   0.1821706300000000    0.5251695199999999    0.3765711400000000 Se
   0.8488373000000000    0.8585028500000000    0.2878782000000000 Se
