Bi54 Se81
1.0
  12.5739999999999998    0.0000000000000000    0.0000000000000000
   0.0000000000000000   10.8900000000000006    0.0000000000000000
   0.0000000000000000    0.0000000000000000   29.9280000000000008
Bi Se
54 81
direct
   0.0216295500000000    0.5313948600000000    0.1881355300000000 Bi
   0.1882471800000000    0.4062396700000000    0.3082802100000000 Bi
   0.4929521200000000    0.2252167100000000    0.1102051600000000 Bi
   0.9226554800000000    0.5344921900000000    0.5479457400000000 Bi
   0.5750723700000000    0.1021450900000000    0.7235087500000000 Bi
   0.5125338000000000    0.8450725400000000    0.2765764500000000 Bi
   0.1744806700000000    0.8476271800000000    0.2842655700000000 Bi
   0.6246158700000000    0.4544931100000000    0.7749619100000000 Bi
   0.8155336399999999    0.0107630900000000    0.2766793600000000 Bi
   0.7681294700000000    0.3418650100000000    0.6411216900000000 Bi
   0.3648759300000000    0.5458521600000000    0.1969847600000000 Bi
   0.1548934300000000    0.6877364600000000    0.4340714400000000 Bi
   0.2726666100000000    0.0802865000000000    0.5265513900000000 Bi
   0.6956036300000000    0.7810762200000000    0.8239772100000000 Bi
   0.0372260200000000    0.8916868700000000    0.7858560500000000 Bi
   0.1775027800000000    0.2068521600000000    0.1815554000000000 Bi
   0.5854628600000000    0.2895555600000000    0.5288365400000000 Bi
   0.3140400800000000    0.9974306700000000    0.3565356900000000 Bi
   0.5133680600000000    0.9850991700000000    0.5016058500000000 Bi
   0.9030523300000000    0.1345546400000000    0.5031799700000000 Bi
   0.7653682200000000    0.8829788800000000    0.4778314600000000 Bi
   0.0745777000000000    0.2359540900000000    0.7392024200000000 Bi
   0.7434563400000000    0.4994765800000000    0.4134639800000000 Bi
   0.6793931900000000    0.9478071600000000    0.5853505100000000 Bi
   0.1527047900000000    0.5901864100000001    0.6646628600000000 Bi
   0.6375186900000001    0.8509641900000000    0.1612553500000000 Bi
   0.5420248100000000    0.7786152400000000    0.6843063400000000 Bi
   0.3859432200000000    0.8173654700000000    0.7763619400000000 Bi
   0.8773882600000000    0.9811625300000000    0.7061708100000000 Bi
   0.9506195300000000    0.5654453600000000    0.8024769400000000 Bi
   0.4247693700000000    0.3326850300000000    0.3929430600000000 Bi
   0.4801646300000000    0.1070606100000000    0.8533209700000000 Bi
   0.6607714300000000    0.0683957800000000    0.4081809700000000 Bi
   0.2847812900000000    0.4409733700000000    0.8152362300000000 Bi
   0.0803912800000000    0.3873562900000000    0.4284456000000000 Bi
   0.0347367600000000    0.9274784200000000    0.5563863300000000 Bi
   0.4202346100000000    0.6886997200000000    0.4393494400000000 Bi
   0.3555256900000000    0.7711359000000000    0.5386838400000000 Bi
   0.8357634800000000    0.1856960500000000    0.1539959200000000 Bi
   0.2902982300000000    0.4947034000000000    0.5080446400000000 Bi
   0.8321830800000000    0.2006124900000000    0.8469657200000000 Bi
   0.9966581799999999    0.8306703400000000    0.1762770600000000 Bi
   0.3878105600000000    0.4208429800000000    0.6584903800000000 Bi
   0.2780419900000000    0.9759917400000000    0.6506782900000000 Bi
   0.3468649600000000    0.9110780500000000    0.1446354600000000 Bi
   0.8725019899999999    0.6123232300000000    0.6515918200000000 Bi
   0.6141394900000000    0.5839788800000000    0.3168427600000000 Bi
   0.8219596000000000    0.3764527100000000    0.3185475100000000 Bi
   0.0887474200000000    0.1955482100000000    0.5927666400000000 Bi
   0.6743057099999999    0.5597410500000000    0.5733911400000000 Bi
   0.6878932700000000    0.4908475700000000    0.1707103700000000 Bi
   0.8656497500000000    0.6625656599999999    0.3356261700000000 Bi
   0.5039430600000000    0.1951000900000000    0.2580560000000000 Bi
   0.0456314600000000    0.0284132200000000    0.3657060300000000 Bi
   0.2156091900000000    0.7996896200000000    0.9226246299999999 Se
   0.1881008400000000    0.4249724500000000    0.2226106000000000 Se
   0.6417822500000000    0.6584022000000000    0.4779694600000000 Se
   0.1857857500000000    0.9428815400000000    0.4320723100000000 Se
   0.2645562300000000    0.2850743800000000    0.4537817400000000 Se
   0.3184420200000000    0.4124591400000000    0.1113803100000000 Se
   0.5064291400000001    0.9977162500000000    0.6456873200000000 Se
   0.2069635800000000    0.7848402200000000    0.8408443600000000 Se
   0.9404334300000000    0.1956712600000000    0.6673857300000000 Se
   0.8404565000000001    0.3643517000000000    0.7749816200000000 Se
   0.6049745500000000    0.3001377400000000    0.4383837900000000 Se
   0.0286495900000000    0.9980697900000000    0.0172109700000000 Se
   0.0562136200000000    0.1281781500000000    0.8237576900000000 Se
   0.3462851900000000    0.2231689600000000    0.3199799500000000 Se
   0.4850373800000000    0.6338292000000000    0.6132571500000000 Se
   0.7606425999999999    0.0193976100000000    0.9175364200000000 Se
   0.7474089400000000    0.1773324200000000    0.5659459400000000 Se
   0.5002672200000000    0.8474747500000001    0.8583771100000001 Se
   0.0601248600000000    0.3480284700000000    0.0406372000000000 Se
   0.1082551300000000    0.5668659300000000    0.9470789900000000 Se
   0.6758191500000000    0.6928641000000000    0.0050073500000000 Se
   0.1201630300000000    0.4758246100000000    0.7513285200000001 Se
   0.5396023500000000    0.4477768600000000    0.2387242700000000 Se
   0.7116589800000001    0.6729605100000000    0.7340995100000000 Se
   0.5251765500000000    0.9778282800000000    0.0847403800000000 Se
   0.1986997000000000    0.8180404000000000    0.7182648400000000 Se
   0.4090862100000000    0.7332617100000000    0.9330540000000001 Se
   0.9678471400000001    0.7472653800000000    0.4959248900000000 Se
   0.8136941300000000    0.7688429800000000    0.2350050100000000 Se
   0.6832368400000000    0.1797318600000000    0.3209375800000000 Se
   0.3188865900000000    0.3974334300000000    0.9788883300000000 Se
   0.3886193700000000    0.7072029399999999    0.0247336900000000 Se
   0.4724431400000000    0.2537364600000000    0.0095509200000000 Se
   0.8535382500000001    0.3957428800000000    0.2193731600000000 Se
   0.5877978400000000    0.3321524300000000    0.6953294600000000 Se
   0.9007666600000001    0.3767906300000000    0.4743347400000000 Se
   0.8874566600000000    0.2455528000000000    0.0018173600000000 Se
   0.5046278000000000    0.8889127600000000    0.3731585800000000 Se
   0.5278845200000000    0.5689182699999999    0.0356866500000000 Se
   0.8696079200000000    0.8634775000000000    0.6249953200000000 Se
   0.0926721800000000    0.6531946700000000    0.3374829600000000 Se
   0.0267416900000000    0.9901368200000000    0.9401263000000000 Se
   0.8800365800000000    0.6103443500000000    0.1094947900000000 Se
   0.2351487200000000    0.2150275500000000    0.6710749100000000 Se
   0.1906561200000000    0.7945289300000000    0.5978431600000000 Se
   0.3903014200000000    0.5185546400000000    0.9030894100000000 Se
   0.7014689000000000    0.3246923800000000    0.0988575900000000 Se
   0.6253801500000000    0.3179577600000000    0.8619082500000000 Se
   0.0584802000000000    0.0120156100000000    0.2330189100000000 Se
   0.4183879400000000    0.5493654700000000    0.7575284000000000 Se
   0.8545633800000000    0.9103122100000000    0.3611200200000000 Se
   0.0256354400000000    0.3050670300000000    0.1193394100000000 Se
   0.7292651500000000    0.0662543600000000    0.9910802600000000 Se
   0.4450079500000000    0.0824591400000000    0.9583062700000000 Se
   0.1192993500000000    0.7907722700000001    0.0289494800000000 Se
   0.3968578000000000    0.0752617100000000    0.7714915800000000 Se
   0.0982599000000000    0.4900413200000000    0.8758888000000000 Se
   0.7377008100000000    0.0144802600000000    0.7822978500000000 Se
   0.2261388600000000    0.5134765800000000    0.0517588900000000 Se
   0.3771353600000000    0.1302617100000000    0.1822981800000000 Se
   0.8511913500000000    0.9025849400000000    0.0282675100000000 Se
   0.4020709400000000    0.5583305800000000    0.3571097300000000 Se
   0.5610879600000001    0.9248521600000000    0.0007160500000000 Se
   0.2875226700000000    0.0226795200000000    0.9876630600000000 Se
   0.9194242100000000    0.5871763100000000    0.0348900700000000 Se
   0.2556664500000000    0.2094169000000000    0.8742836100000000 Se
   0.9389080600000000    0.7624251600000000    0.9340356900000000 Se
   0.5808947000000000    0.4391432500000000    0.9343785100000001 Se
   0.0274216600000000    0.2841790600000000    0.3502255400000000 Se
   0.5484666800000000    0.6304545499999999    0.1259035000000000 Se
   0.1128845200000000    0.4494003700000000    0.5788759700000000 Se
   0.1826069700000000    0.2316262600000000    0.9484349100000000 Se
   0.6756338500000000    0.0776005500000000    0.2051206200000000 Se
   0.6774701800000000    0.6225601500000000    0.9235094200000000 Se
   0.1574860800000000    0.8083287400000000    0.1075421000000000 Se
   0.9312382700000000    0.2974775000000000    0.9300040100000000 Se
   0.3948608200000000    0.3108016500000000    0.5659780100000000 Se
   0.3410911400000000    0.7830394899999999    0.2247547400000000 Se
   0.9052680100000000    0.7612405900000000    0.8558139500000000 Se
   0.8337490100000000    0.9430055100000000    0.1118210400000000 Se
   0.7677906799999999    0.4030596900000000    0.0159115200000000 Se
