Nb4 Se8
1.0
   3.4993145650667605    0.0000000000000000    0.0000000000000002
   0.0000000000000010    6.0589638900001743    0.0000000000000004
   0.0000000000000000    0.0000000000000000   24.6044232073238973
Nb Se
4 8
direct
   0.5000000000000000    0.4247032700000001    0.0000000000000000 Nb
   0.5000000000000000    0.9247032700000001    0.5000000000000000 Nb
   0.0000000000000000    0.9247032700000001    0.0000000000000000 Nb
   0.0000000000000000    0.4247032700000001    0.5000000000000000 Nb
   0.5000000000000000    0.7581483650000000    0.0681141200000000 Se
   0.0000000000000000    0.7581483650000000    0.4318858800000000 Se
   0.5000000000000000    0.2581483650000000    0.5681141200000001 Se
   0.0000000000000000    0.2581483650000000    0.9318858800000001 Se
   0.0000000000000000    0.2581483650000000    0.0681141200000000 Se
   0.5000000000000000    0.2581483650000000    0.4318858800000000 Se
   0.0000000000000000    0.7581483650000000    0.5681141200000001 Se
   0.5000000000000000    0.7581483650000000    0.9318858800000001 Se
