Bi288 Se216
1.0
  17.7746670000000009    0.0000000000000000    0.0000000000000000
   0.0000000000000000   21.9862549999999999    0.0000000000000000
   0.0000000000000000    0.0000000000000000   41.6504580000000004
Bi Se
288 216
direct
   0.3108969636393188    0.2263268573934033    0.0960872987279036 Bi
   0.7393950052622645    0.5309908395040447    0.0510666653413511 Bi
   0.8256751026615576    0.0158275704525396    0.2534738033372886 Bi
   0.7568299310473722    0.7871053983500145    0.0864295417831900 Bi
   0.0403293068725282    0.1448514083003222    0.4035729931229088 Bi
   0.9751575092799208    0.1268224170055337    0.3343996841523327 Bi
   0.1592119841119949    0.4220268526859168    0.2917711012925716 Bi
   0.1262054585889007    0.4928761173742413    0.3344164906902104 Bi
   0.9876471947406947    0.9146714617837371    0.2383868143778875 Bi
   0.7074675435551057    0.3023311609912648    0.2078644609382207 Bi
   0.3318728840320890    0.6049597805538052    0.0498938090908868 Bi
   0.7049696064629509    0.9150580669604714    0.2269799770269033 Bi
   0.1822599545746764    0.3687822232572123    0.2266143147813645 Bi
   0.9475057957485223    0.2587011748931321    0.4494500396610285 Bi
   0.8124821691455598    0.4556710544838127    0.3069354003262101 Bi
   0.3484515349851561    0.1215204681288378    0.3015861194131407 Bi
   0.6509151479462316    0.8965283082544072    0.3221045012278136 Bi
   0.1554993969788576    0.8936856231313610    0.4470755159523095 Bi
   0.2904729523202882    0.7724189499303088    0.3855996013297141 Bi
   0.2814741902056450    0.4438805062526565    0.4848734196392270 Bi
   0.8194752678067049    0.2934647123850788    0.5801376781979204 Bi
   0.7285931151340276    0.5314456691237320    0.2507247339272956 Bi
   0.5508429496878900    0.2364563678534612    0.3694149053535018 Bi
   0.4612080777659576    0.1131156715866345    0.3790402496894512 Bi
   0.7855618335915941    0.8625388907751683    0.8543339427383968 Bi
   0.7476820803450214    0.9405194290705716    0.9887118168064324 Bi
   0.1693832013843072    0.3373730542104602    0.0125673528007783 Bi
   0.3788267875848251    0.0517259533285682    0.1072293130606151 Bi
   0.1861913925025993    0.6417691416751056    0.2101494298093913 Bi
   0.5341326506988852    0.3313092657207878    0.2710054232776984 Bi
   0.2110368649944328    0.1720070107437578    0.0172726552010545 Bi
   0.1575855120098734    0.4572856996337030    0.9218217960532391 Bi
   0.8714031042044276    0.1878387201458366    0.0711274291389545 Bi
   0.1327135973911635    0.4972561266118309    0.1237796712823662 Bi
   0.0560292353156321    0.0596172472301445    0.8703265639960069 Bi
   0.7425061746585745    0.3512612766476146    0.8762208569231099 Bi
   0.8745480295073883    0.9297399670839804    0.6606265890281446 Bi
   0.7209642802309602    0.6210834905717231    0.9919482758148782 Bi
   0.6242986155521226    0.0503541871955911    0.0211901871523238 Bi
   0.5458330105424760    0.5846698312195505    0.2821817709663601 Bi
   0.6462343288906621    0.1747591847724863    0.9123837245679267 Bi
   0.2906034751593377    0.4531230989543240    0.7632617149131949 Bi
   0.6094685205635638    0.3148098664370080    0.0640048183863909 Bi
   0.9339753031660171    0.3936877835720545    0.9086454703571327 Bi
   0.8069687043926055    0.9204477979537671    0.0993451260487940 Bi
   0.1785378032679881    0.9321187259949455    0.9567938004427228 Bi
   0.8663509701757001    0.8331432524547723    0.1695746058782835 Bi
   0.7415666352567956    0.4449006890896153    0.9792185238395218 Bi
   0.2122166339318762    0.3587800650906669    0.1241484547420823 Bi
   0.2868070608580178    0.1979827851537244    0.4293446184913501 Bi
   0.3750450008430538    0.1947339371802974    0.9428323693343300 Bi
   0.2876790884464953    0.7278547437933381    0.1091939973385167 Bi
   0.6029592565644127    0.5871713941278313    0.3973713806460423 Bi
  -0.0075405632071757    0.1289369199074604    0.1695707643839115 Bi
   0.3365452641109957    0.4919300717652915    0.2514690234618789 Bi
   0.9429206184284634    0.2704380532291652    0.3748938367016276 Bi
   0.5556711695358344    0.4432441996147138    0.1741976042616386 Bi
   0.5442594226941073    0.9175914679421301    0.1695717247575045 Bi
   0.2443910763560296    0.6926418346371404    0.9866878294591622 Bi
   0.8946271679801371    0.7055999305020342    0.0057537182424261 Bi
   0.4246858745651888    0.3080638335178046    0.2020957368584038 Bi
   0.9706792256642557    0.9516400132719283    0.9863973164472766 Bi
   0.6259357770246835    0.4575540491093186    0.2938022914417892 Bi
   0.1164775688906014    0.3623955057375620    0.7558764419829430 Bi
   0.0805595964188809    0.4040110514500992    0.1783368144475146 Bi
   0.1632036200734450    0.5405468098136768    0.8139046154066302 Bi
   0.0532951193966109    0.5272976229921831    0.2065545113573541 Bi
   0.8970463412901069    0.6575198914048800    0.1189374676264064 Bi
   0.0713110405950221    0.7390026177718761    0.1133000746354338 Bi
   0.0781736164171177    0.0519624647308057    0.9424674273689859 Bi
   0.4673572787608342    0.3118557480571384    0.0900736793818690 Bi
   0.8816761517951364    0.5034008747738076    0.1063889861667307 Bi
   0.4706709835970486    0.3209905461389400    0.9124101348417345 Bi
   0.0683911546697331    0.0412690110252974    0.2630367233896924 Bi
   0.2317494893153273    0.5732081248034283    0.2979391006936827 Bi
   0.8153514212108728    0.1623437006438795    0.2422686444408367 Bi
   0.6499306006689184    0.1238491957816372    0.3453575468485845 Bi
   0.2790319503594638    0.2744396442231749    0.2865730792204014 Bi
   0.4561272512165769    0.8093875014184999    0.2653680302867258 Bi
   0.8339452997909891    0.7991310934945492    0.2718145380298099 Bi
   0.5634085859386283    0.4773846205276888    0.0073712514757941 Bi
   0.4711013714068455    0.7511875032833013    0.8931954601795735 Bi
   0.1737619050753525    0.1743116324267139    0.9170511402299586 Bi
   0.0336770866087112    0.8787535667170239    0.0560546056900503 Bi
   0.9049846053374727    0.5511170501752117    0.1683217985262011 Bi
   0.4396425542036878    0.9280525491949402    0.1040183039523839 Bi
   0.9685075956697248    0.3946429257733979    0.0227517306052193 Bi
   0.8325162997427744    0.4290407802511160    0.2290457406254692 Bi
   0.1115452683304841    0.8839477209738539    0.3667594723688273 Bi
   0.0353301696172423    0.4178656164953968    0.2518291635592579 Bi
   0.0026047182768600    0.6911863798541407    0.4884364056692966 Bi
   0.5475753779240984    0.2591569141720589    0.1369247848366998 Bi
   0.2707189957482748    0.9194699142714391    0.0997993827582880 Bi
   0.0075851772637991    0.6930329881100715    0.0525048247968846 Bi
   0.6738972943909441    0.5668223169430174    0.1387322079387459 Bi
   0.9304646888743400    0.0389176783403995    0.0751204224452946 Bi
   0.2163590462763662    0.4292613726166643    0.6537575169041359 Bi
   0.1056430480526021    0.7420454279275849    0.4216880400210726 Bi
   0.3309294064412008    0.3255943315494157    0.3776645145174635 Bi
   0.2081321692271366    0.6117913214415097    0.4613514694124132 Bi
   0.7923636487817184    0.2761684516076067    0.6702831455058670 Bi
   0.4615895195111109    0.1012005000396839    0.5666180189423128 Bi
   0.4655108306670387    0.0973785667454507    0.4713393547797242 Bi
   0.8652989110850853    0.3699324873654017    0.4382664891704193 Bi
   0.2180097101115875    0.0829581936532620    0.4684342246608669 Bi
   0.0773465967041745    0.0846155927874029    0.7921521535249384 Bi
   0.2160327391787424    0.1840909240796124    0.7183282354302083 Bi
   0.3931387294062950    0.3861166897227381    0.8190306094593246 Bi
   0.7213918550485362    0.9023728688673901    0.5564260541864869 Bi
   0.3303825607534588    0.4860991560408992    0.5529302943079282 Bi
   0.8494673908658880    0.2461847185889548    0.4989428927768333 Bi
   0.6274154109328743    0.7105029938022642    0.8392080586484788 Bi
   0.6613682270390776    0.6060513716410548    0.6595461687360077 Bi
   0.5861600670212275    0.4584909981258746    0.9051809226203468 Bi
   0.8171967441077799    0.7535799070828570    0.3548532407494775 Bi
   0.7228771149411688    0.0979562003624537    0.7219848578855964 Bi
   0.2605989749343827    0.9422159435520057    0.7974486138903923 Bi
   0.9490023076100386    0.8992254478991535    0.4914471768833851 Bi
   0.5848829685529412    0.7813699968457566    0.5264239831408336 Bi
   0.0015411821779840    0.4531904137380377    0.6126727345951394 Bi
   0.6072800126157075    0.6468313953422262    0.0839743466926582 Bi
   0.1071637516472179    0.9912192867771250    0.6617646317358623 Bi
   0.2547603282806929    0.1529773942856571    0.1820200872701088 Bi
   0.2292301734822937    0.5285484044463233    0.1887270963502971 Bi
   0.0256641094879583    0.9407241023994309    0.4259785090478477 Bi
   0.5037118276252377    0.9672315726348120    0.6189079601477612 Bi
   0.1059496642046796    0.5580031706172788    0.2628518514730379 Bi
   0.0888511722891911    0.2604568172251254    0.4169990159531980 Bi
   0.6189145484413294    0.4262722323560789    0.3719214804312596 Bi
   0.4693528154423371    0.8252837966265741    0.4044829471022864 Bi
   0.0384927605113502    0.7479218266139458    0.2713727661770250 Bi
   0.2130290260852707    0.1037561876727073    0.3753524150922902 Bi
   0.0743687631391350    0.2790943705510556    0.2364963189600460 Bi
   0.6055190794854273    0.4605968592650271    0.5651534492129715 Bi
   0.8138605353337984    0.9323552373971828    0.3887088108370861 Bi
   0.5543771931142226    1.0162531090447191    0.2660138815280255 Bi
   0.8954823176152892    0.1436115427570543    0.4314646431979212 Bi
   0.5791219604845480    0.7346453500152710    0.1965747891655837 Bi
   0.1195836749009138    0.5159405273885890    0.5563036065533782 Bi
   0.4910831803487514    0.9918560482446875    0.4043100798555445 Bi
  -0.0128960503170045    0.4255003864914693    0.4731352533986541 Bi
  -0.0037108430779603    0.4247658366556742    0.3838397167205220 Bi
   0.1208692123458628    0.2095040742500258    0.3109833750207501 Bi
   0.0641300340535212    0.0282202221342380    0.5800632492444622 Bi
   0.4363806084243378    0.4171460760370513    0.3200012830591203 Bi
   0.8850629944290940    0.3400078821973092    0.2700594552885829 Bi
   0.7414034817079836    0.0422204236237595    0.4000892379142626 Bi
   0.6067511700781792    0.9362804170150851    0.4527537248209851 Bi
   0.2809802287716557    0.7197360350819182    0.5757679783497219 Bi
   0.0767716210942236    0.1579536851546569    0.4764965609741915 Bi
   0.2905775956309055    0.0118320286924717    0.2399066055888269 Bi
   0.8508120011474758    0.1000324975763267    0.5007363904617808 Bi
   0.5213318482984801    0.5677683625519672    0.7298623222822664 Bi
   0.3560983730384372    0.6094216591229383    0.6920476120574713 Bi
   0.8188901654247588    0.1489767129508868    0.3682720607778190 Bi
   0.6498912187778259    0.9582304944611987    0.6642471974737949 Bi
   0.6133842057350497    0.2042216830469764    0.4800859572780689 Bi
   0.3185539284645951    0.8566261057192323    0.6393639176788884 Bi
   0.7360531705038412    0.6686814102720086    0.2935141793638860 Bi
   0.2071341195871630    0.8057261229800163    0.1515383096147466 Bi
   0.3727822299005658    0.9618100035681383    0.4751040192643260 Bi
   0.7461068047013201    0.7597837830953930    0.4402640662438814 Bi
   0.3828015455929498    0.7824524913406126    0.4848998299130349 Bi
   0.7187138864542442    0.1933562582622643    0.4098466336192509 Bi
   0.9329682519509368    0.6943201559337868    0.6121037132412805 Bi
   0.7575050491803869    0.0722078407623308    0.1686629712451181 Bi
   0.5130397098297256    0.7182532905217374    0.3215354798739548 Bi
   0.2563344787275059    0.9631381060576255    0.3680391701815140 Bi
   0.1160753110030135    0.6547272375399994    0.7277591041135730 Bi
   0.1425174378794269    0.2938667817688824    0.6749937779795844 Bi
   0.3791435305088979    0.3207103710932125    0.5461332502033952 Bi
   0.1041819798930692    0.2016232414297023    0.5614632136818279 Bi
   0.9646931782181910    0.3266577232002449    0.5470480060507378 Bi
   0.1545238512766512    0.7858591651920711    0.2147683466049761 Bi
   0.1338320430981914    0.7569774843419218    0.5190387102105817 Bi
   0.3515756441456822    0.2177414934921841    0.6390445934592124 Bi
   0.8310422918190253    0.5293307113921857    0.6555486136551008 Bi
   0.5261561299573151    0.2953104109817702    0.6940764012727063 Bi
   0.9626509458658213    0.8686108661979951    0.3750883123542123 Bi
   0.0139435523602214    0.3773734999434874    0.1002918143181043 Bi
   0.8542776075636185    0.7939915187920817    0.5298765262077071 Bi
   0.5058035686406952    0.1504544543852512    0.2315727236420786 Bi
   0.3608680826481869    0.5888906500902495    0.3834147514056148 Bi
   0.5398013926224328    0.7257215928770043    0.4362785158328871 Bi
   0.1232264998269729    0.6740711412653041    0.3353192418676404 Bi
   0.2514370592709276    0.1337794908682720    0.5806370724662860 Bi
   0.6928849918819857    0.4181639847259118    0.4521222791835807 Bi
   0.4750676904383075    0.2330096689954701    0.4444608988453381 Bi
   0.6458517619486204    0.5802898219819610    0.4898121408412844 Bi
   0.1527224110583900    0.5893227382289526    0.6487347630126901 Bi
   0.9208217515411119    0.0425977047932902    0.3979524066698138 Bi
   0.9144475111685637    0.5396462471666957    0.2566550408641365 Bi
   0.7816123925134575    0.6344964160563042    0.8906840832338507 Bi
   0.4236557568138970    0.5862844763694408    0.1832409622002236 Bi
   0.0149765393635785    0.3150445585207667    0.9647408919248859 Bi
   0.9079326211849708    0.5747181591407904    0.0375926238314114 Bi
   0.0620630473696075    0.2393791029895724    0.1059604194508497 Bi
   0.8730740215836392    0.6667802224617153    0.2174100942659502 Bi
   0.4130699044882247    0.9453497196316517    0.9152840528188190 Bi
   0.5861713189901111    0.8433541774167543    0.0982205285713785 Bi
   0.7958798890578372    0.4335777057074977    0.1527051635302546 Bi
   0.4502480974749063    0.4578769781392966    0.0921879418468820 Bi
   0.5114863755253474    0.0572848809403875    0.9591587204155114 Bi
   0.9078538574027857    0.7723734669683400    0.9473581298913929 Bi
   0.8376809534603377    0.2733257664845605    0.9301458341706591 Bi
   0.5532851895340711    0.0813512806069065    0.1551303469460048 Bi
   0.7385679855493215    0.2066290962239818    0.1272394171511871 Bi
   0.6894475153880519    0.8005910965737457    0.9324147167841469 Bi
   0.5732765626495281    0.8058762167545132    0.0181784075459626 Bi
   0.1744561515554694    0.9260967818302844    0.1778141311195185 Bi
   0.8304965713281717    0.0645303167820077    0.9900275286288570 Bi
   0.6636692546757698    0.8540927047375736    0.7555883299050398 Bi
   0.2835743701977652    0.6548909762030869    0.8229345281149129 Bi
   0.7828051012151169    0.3077668297761488    0.7924282609329291 Bi
   0.6357868757822580    0.2225422201279845    0.9999289803727969 Bi
   0.9732559265385956    0.0476115645888761    0.6980667535516657 Bi
   0.1088116024902182    0.9152127090311651    0.8704177994873431 Bi
   0.9124896685828208    0.8956686802731979    0.5783201711731477 Bi
   0.9780155093763501    0.3779488594123920    0.6857043444756358 Bi
   0.3668726958429095    0.0126519955308442    0.7521045746963936 Bi
   0.1379519515049143    0.1882012193527274    0.8388647250889776 Bi
   0.0595499201194599    0.8036339067294545    0.6201588467526575 Bi
   0.8979971326607694    0.8242285919088995    0.7627263066350916 Bi
   0.8297595673662972    0.4117799961839795    0.5505701762031044 Bi
   0.2976021998049246    0.1506432086774214    0.8668332050514307 Bi
   0.5634254638919536    0.3553838523204611    0.7759938678225340 Bi
   0.8926805773632778    1.0092305397167458    0.7917343910119788 Bi
   0.1550616953892863    0.3093264405420568    0.8812147996067655 Bi
   0.2814854421745285    0.0065672848786662    0.6764751542468033 Bi
   0.3212071427273434    0.2471848889226473    0.8190210057233945 Bi
   0.4494306419355142    0.1491295357031018    0.0251447415056036 Bi
   0.4435374232327390    0.7536708730067945    0.5914172660478307 Bi
   0.6220425957909648    0.2635810418827581    0.5584572443357047 Bi
   0.5274697973244731    0.1258786455446823    0.8631669788601125 Bi
   0.7493867536308838    0.6514706574630377    0.5785242505616626 Bi
   0.7270740993347443    0.1590898495446360    0.8303222019791475 Bi
   0.6220088398843140    0.1362574026363289    0.6210087773824721 Bi
   0.9481977918348625    0.6252724713690440    0.6935553985984980 Bi
   0.6216206469578305    0.7809197155222660    0.6346868982809265 Bi
   0.5320504738569786    0.9081082703716482    0.5482964917216517 Bi
   0.6858300073919810    0.8831927038051728    0.0424240232844498 Bi
   0.8972319987766860    0.1521254984079826    0.7153918931695781 Bi
   0.4536366279041965    0.6537766436348528    0.9694923402763063 Bi
   0.1116099671515646    0.0422139195601980    0.0530368717674125 Bi
   0.1830543435778572    0.4037909139141705    0.8183799563500599 Bi
   0.2995566668000025    0.5821910097922544    0.9174568980730056 Bi
   0.1859438491871606    0.6147431656732809    0.1278117998126215 Bi
   0.1275573826502629    0.5125156603523429    0.7444575999620461 Bi
   0.3340270734748504    0.4061846822025852    0.9256392810854566 Bi
   0.2939931307855163    0.3455604421944529    0.8742424873215080 Bi
   0.4817339194033846    0.1333701442105534    0.7217591700912388 Bi
   0.7587146358353718    0.4244338110333024    0.7257831354459535 Bi
   0.6483215691185663    0.0502982431523695    0.8805497408936056 Bi
   0.2738324155383614    0.7437237492242312    0.7576843452717855 Bi
   0.9220369641805385    0.4986388086556806    0.8553831508887609 Bi
   0.9351286299765842    0.1798055194029179    0.5788867915930240 Bi
   0.9720632178369361    0.3153201852702973    0.7847788852645990 Bi
   0.5031092846915219    0.9571025170043738    0.8072996460206993 Bi
   0.0384301995643575    0.6081117498182388    0.0971480313613838 Bi
   0.7943271173519031    0.0380438141920941    0.5988193455159605 Bi
   0.5927424688181219    0.2120674939865839    0.7590456748398782 Bi
   0.6844572671881842    0.4152426140786596    0.6348981804713888 Bi
   0.3922042533905136    0.1409239545343216    0.7860681868132158 Bi
   0.9405689569317951    0.2797029325821974    0.8540602362643889 Bi
   0.8952347742998504    0.6702505724599300    0.8200510064018985 Bi
   0.1713838014518078    0.5385091731174773    0.0179005954748445 Bi
   0.8882979354831232    0.1583689445974314    0.6500096589574117 Bi
   0.3511694480689849    0.8570900319313135    0.1821509381721565 Bi
   0.3748503417813678    0.8663912976539206    0.0517958289918445 Bi
   0.2567457381902007    0.7511465686175295    0.8831835654724373 Bi
   0.1879360102779985    0.8988388427224191    0.7297014597054371 Bi
   0.7812579554936248    0.9667949361999122    0.4582374580370761 Bi
   0.0683281436439850    0.7819703719437439    0.7993069367928679 Bi
   0.5217914912273743    0.5350752094888375    0.8150042431706275 Bi
   0.7252287764378371    0.6102312558459819    0.7778401860550969 Bi
   0.2709288449679536    0.9439397478106207    0.5306976456297311 Bi
   0.4622033144137103    0.8091782797934437    0.7157352267290795 Bi
   0.9108637590791434    0.9380178661622909    0.9015699179106267 Bi
   0.4843944474459072    0.3497476036732949    0.0137890680577870 Bi
   0.4233035701878409    0.2290626575558229    0.8658200109108044 Bi
   0.3299397957778900    0.8122938626883024    0.9707600334190803 Bi
   0.9606649733578695    0.1497412815415813    0.9342514312807797 Bi
   0.0326446622037982    0.8593323419563723    0.6919131597544498 Bi
   0.9148638340172560    0.6108407275363630    0.3926079276247094 Bi
   0.0235273605969665    0.3976802779736703    0.8291241359218667 Bi
   0.8773553957438415    0.2312817712702777    0.3225822870903365 Bi
   0.8082345508920082    0.7055362543552779    0.7110101886514670 Bi
   0.4621104856704207    0.5037010623228012    0.6480120818839495 Bi
   0.4175279345598992    0.6907497434192408    0.7402751729644845 Se
   0.6812785859785728    0.0516363518934898    0.2294536593091006 Se
   0.9982803053356780    0.1449232713802328    0.0989088763441689 Se
   0.8147381889067177    0.5733536702817283    0.8302261646198466 Se
   0.8426880796135309    0.8710942359214883    0.9580734982554094 Se
   0.9056991053615802    0.0098174518579904    0.1673354948461791 Se
   0.3012529011092022    0.0896250862186398    0.0537487486932317 Se
   0.6218681902732692    0.3384064271063899    0.9224052230109930 Se
   0.6514102345771091    0.1799778998287794    0.1799298341449211 Se
   0.0187432484670458    0.6896354108510067    0.2070402203020192 Se
   0.6289456787010412    0.5359302891738497    0.9561695576072657 Se
   0.3060378008769447    0.9622739297802195    0.9843781309679717 Se
   0.0379957047859181    0.4869542357259115    0.9630650400050823 Se
   0.7813986051046694    0.1901360645548776    0.8934115442380010 Se
   0.2740636434989190    0.1072347246040765    0.9554156643367524 Se
   0.2966013371727301    0.4725315884856243    0.0605940515708135 Se
   0.8782499272700861    0.3903889043404618    0.8327279378296393 Se
   0.0959399126858467    0.9247732276369941    0.7987619247788343 Se
   0.5969619571494644    0.6535264873440247    0.7766997424133968 Se
   0.6671742429830050    0.0833902817919650    0.9557565969622711 Se
   0.4956098474306158    0.7377700295025234    0.0985518574609672 Se
   0.7906814794336231    0.4233044690876186    0.0704419624869431 Se
   0.0388855667450760    0.8062173389692787    1.0059745321407989 Se
   0.5447483207420989    0.4062660967045093    0.8318395922561045 Se
   0.4319287669355493    0.7393983195410041    0.2113201252192713 Se
   0.3280292114614580    0.0496883166323687    0.1796714936484012 Se
   0.9051252549485175    0.7730739045826586    0.1004858097838924 Se
   0.9769859542235025    0.2563824534919658    0.0354615548285207 Se
   0.2250399402700484    0.7699264836144218    0.8182575087169511 Se
   0.4134941037151357    0.1549386196057491    0.1372553934460937 Se
   0.9494748903031489    0.1649921735193192    0.8631765825960426 Se
   0.7693139905237044    0.0559190275924663    0.0590668174645282 Se
   0.2411004380560266    0.9928748665927871    0.8613302643634796 Se
   0.0827402279885187    0.5079901056364533    0.8683361897244924 Se
   0.1740527684709930    0.9253917959197689    0.0401868329995315 Se
   0.9418910632756159    0.4847937950323963    0.5492280541068720 Se
   0.7673223920313106    0.7483311732716644    0.9856338194408332 Se
   0.1077899237155892    0.6427470253574336    0.9636508678968188 Se
   0.9351173780077006    0.3516610718833198    0.1527510213693208 Se
   0.8222601301053910    0.8629073027671152    0.3246951089949599 Se
   0.8196496733244004    0.3466684071480113    0.0031984522235026 Se
   0.2798724724350673    0.2893962614369751    0.1719911459316966 Se
   0.4269278293652421    0.3967919957264209    0.1483890045098664 Se
   0.2041484096439050    0.1239456196610109    0.2656081236849784 Se
   0.8451691387523603    0.4873044545330708    0.3944326374514297 Se
   0.4356362906826890    0.9372037211430505    0.2137157771470364 Se
   0.2701136398223382    0.4251742736541534    0.9805222309920337 Se
   0.6598660891931196    0.9637475777480067    0.1099409279004807 Se
   0.4086850122142935    0.6008208310146498    0.1131893915788393 Se
   0.5914878742876027    0.7122222497646825    0.2697017161251865 Se
   0.1839033046301233    0.2425556330534691    0.0612540683226100 Se
   0.6574244119453827    0.3406883073083615    0.1411338622014673 Se
   0.0355342803327905    0.9196336529345266    0.9319273271856938 Se
   0.1232169356534218    0.0540846997362670    0.1841766061732142 Se
   0.8797351871627187    0.2129812466925359    0.1789932297983374 Se
   0.4743695057690814    0.3292202332775636    0.3996906828731632 Se
   0.9515846344688202    0.1121355137562081    0.2397498245997679 Se
   0.8428962410378772    0.8898377645488056    0.2219826730356723 Se
   0.0278446285379074    0.4928943105590288    0.0539821194763333 Se
   0.6988372834213997    0.6960439601924020    0.1468295978882153 Se
   0.3677886061100329    0.5428436993930981    0.4850054710082660 Se
   0.9907246082303539    0.1005810220976696    0.0108743582123395 Se
   0.5249954893669737    0.1143432567301707    0.0774404449526101 Se
   0.3728722456516344    0.9945850259628117    0.2901288624485234 Se
   0.6040000636861439    0.6843593872626329    0.9078627658788290 Se
   0.2325405027278429    0.8412574128699953    0.3300515927099770 Se
   0.0896247451499373    0.2135338646804560    0.1759538874698569 Se
   0.3118809483181879    0.8807684619322390    0.4276567619016339 Se
   0.2906732373664159    0.4736004380918896    0.4167157057432598 Se
  -0.0261048491091282    0.7055408026514748    0.3636430600595076 Se
   0.1995390405907464    0.1148426596525875    0.1203388927920072 Se
   0.5262838398041437    0.6006388991667748    0.0359532661081422 Se
   0.5505942811755630    0.4791402628596821    0.4526096687820336 Se
   0.2021247430401931    0.8495125704673215    0.5767451584806103 Se
   0.5888942954599374    0.5753867586817309    0.1947863334419996 Se
   0.5977439689868733    0.4511946213668495    0.0775933844472971 Se
   0.6071674929268717    0.8684334826463169    0.2707605280114807 Se
   0.6178287334440640    0.7423547120689722    0.7070798597220708 Se
   0.6646988098286173    0.1418358879217948    0.5375307037440021 Se
   0.8874315338790876    0.6568967748259082    0.2900808437688729 Se
   0.5200221191204314    0.0090907250916539    0.5163160510743964 Se
   0.3010593672444046    0.8422989726990794    0.2513801889045254 Se
   0.5591356507550886    0.2815377152680163    0.2147887545438276 Se
  -0.0197401729101310    0.5334924024123253    0.3463635381872632 Se
   0.3212875943048609    0.3671066309382840    0.2539731976056542 Se
   0.1095716729883041    0.2039969972148508    0.9777971709218661 Se
   0.5523158324147508    0.7066642318121026    0.3779310181895239 Se
   0.6854080585588467    0.4326898782898679    0.2081873865588705 Se
   0.3186281914592268    0.4919801030234572    0.3227983711487638 Se
   0.7883410699058384    0.6699412883185426    0.0647579913767095 Se
   0.7154283115402387    0.2368338764378017    0.2630679355314652 Se
   0.7013577244513217    0.6519937115256782    0.4345210321576776 Se
   0.3736131878026182    0.4006566830049046    0.6308622104467615 Se
   0.4999998030905445    0.2240663541835569    0.5958974088592256 Se
   0.3773544674564086    0.2094699620285492    0.2438388552654091 Se
   0.7670635967469883    0.3754532092891673    0.3689995437745247 Se
   0.6621333609231610    0.8705984716360290    0.3800006232824619 Se
   0.1009329738779354    0.3406746624197709    0.5032501683414862 Se
   0.1207381269083691    0.5246277731246181    0.4937232622988204 Se
   0.1899743044412590    0.2882541842619400    0.3538160372690259 Se
   0.3696423679836027    0.7133456789253103    0.4284586738517978 Se
   0.0470464509968035    0.8732819663921845    0.1224392298399216 Se
   0.7392487296667780    0.6090532471309916    0.3494679458266702 Se
   0.1151127050650232    0.4056548056956494    0.5769036201234571 Se
   0.5914597443653937    0.3310436452228904    0.3342028075657656 Se
   0.6284393401012801    0.9963270234062145    0.5800608483104795 Se
   0.2763866124749341    0.6999691398103042    0.5142272385095982 Se
   0.4955760915239650    0.8430085069057919    0.3390695007483471 Se
   0.3444700257957013    0.1656594085714006    0.5301622373516277 Se
   0.4783780196838568    0.4649313855406480    0.2439228879547975 Se
   0.4039023628403277    0.8656089907080583    0.5708628702234200 Se
   0.1099654918992294    0.3934721943323227    0.4149630239360153 Se
   0.4941549678539688    0.5221534999935187    0.3566971580480580 Se
   0.5046012957654846    0.8483209168637404    0.4724029685339834 Se
   0.7181287840722980    0.3396117255985615    0.5159246988352445 Se
   0.7396144186554944    0.4931535634422506    0.5110460009827503 Se
   0.4115621406578250    0.7350410517843988    0.0246242190181918 Se
   0.6654470657593754    0.8500947523805213    0.1715949918245797 Se
   0.3863200362628453    0.2702288316041090    0.3303012898441597 Se
   0.2235529925820832    0.6608265027400073    0.3982477215496646 Se
   0.9626847017724720    0.5837237856106008    0.6298514172401177 Se
   0.8935132230606627    0.5352253032633343    0.4838818339044435 Se
   0.3008922755064835    0.0118140629224941    0.5952683641558035 Se
   0.2543856377168698    0.5710522324061101    0.5919454715239867 Se
   0.0473299443528253    0.5930159547408141    0.4272726124644295 Se
   0.7502644072038029    0.6863197029234857    0.6470421045550088 Se
   0.7749568529188198    0.1755360337629123    0.7744020485921187 Se
   0.0693593865921651    0.4689611759710783    0.6716348713380295 Se
   0.8945709081357193    0.6582976500545454    0.5583756125802987 Se
   0.6943364958679676    0.7024343163490099    0.5154325073688265 Se
   0.7629735060578069    0.0641782786563696    0.6615701560832776 Se
   0.9828538559962895    0.0850222104674034    0.5295812113278563 Se
   0.3471018613175707    0.0938777431627169    0.4224851501032714 Se
   0.7017965512377813    0.2758145941634899    0.6223653050825996 Se
   0.7879247470571460    0.9226309801282665    0.6095587232198023 Se
   0.5449834868917657    0.9813403874375149    0.3345629476631445 Se
   0.9578969890125086    0.4311593766196198    0.7449786026362544 Se
   0.8669529505109717    0.9484016263797541    0.7257831354459535 Se
   0.4926888363084383    0.6669576060133934    0.4981385798926869 Se
   0.2584177807663007    0.0883142672547007    0.7657082666413897 Se
   0.5421311127797781    0.1622509154014633    0.2916174415176899 Se
   0.7631647895288277    0.5461685039130130    0.7144699345202878 Se
   0.5209059612762366    0.3551491602367024    0.5123016894556117 Se