Bi8 Se12
1.0
   4.1101121000000003    0.0000000000000000   -0.0189320800000000
   0.0000000000000000   10.3402320999999997    0.0000000000000000
   0.0681934400000000    0.0000000000000000   13.5521540399999996
Bi Se
8 12
direct
   0.2499262200000000    0.8439907400000000    0.7234453100000000 Bi
   0.2500737800000000    0.3439907400000000    0.7765546900000000 Bi
   0.7500737800000000    0.1560092600000000    0.2765546900000000 Bi
   0.7499262200000000    0.6560092600000000    0.2234453100000000 Bi
   0.7497748500000000    0.6719553500000000    0.5030634600000000 Bi
   0.7502251500000000    0.1719553500000000    0.9969365400000000 Bi
   0.2502251500000000    0.3280446500000000    0.4969365400000000 Bi
   0.2497748500000000    0.8280446500000000    0.0030634600000000 Bi
   0.7500601099999999    0.9168121400000000    0.5840962000000000 Se
   0.7499398900000001    0.4168121400000000    0.9159038000000000 Se
   0.2499398900000000    0.0831878600000000    0.4159038000000000 Se
   0.2500601100000000    0.5831878600000000    0.0840962000000000 Se
   0.2495541800000000    0.5851904900000000    0.6468780000000000 Se
   0.2504458200000000    0.0851904900000000    0.8531220000000000 Se
   0.7504458200000000    0.4148095100000000    0.3531220000000000 Se
   0.7495541800000000    0.9148095100000000    0.1468780000000000 Se
   0.7497835500000000    0.7343750999999999    0.8654429600000000 Se
   0.7502164500000000    0.2343751000000000    0.6345570400000000 Se
   0.2502164500000000    0.2656249000000000    0.1345570400000000 Se
   0.2497835500000000    0.7656249000000001    0.3654429600000000 Se
