Se12
1.0
   4.0750684799999997   -7.0582256499999998    0.0000000000000000
   4.0750684799999997    7.0582256499999998   -0.0000000000000000
   0.0000000000000000    0.0000000000000000    5.1270183899999999
Se
12
direct
   0.1234836800000000   -0.0000000000000000    0.3333333300000000 Se
   0.1234836800000000    0.5000000000000000    0.3333333300000000 Se
   0.6234836800000000   -0.0000000000000000    0.3333333300000000 Se
   0.6234836800000000    0.5000000000000000    0.3333333300000000 Se
   0.0000000000000000    0.1234836800000000    0.6666666700000000 Se
   0.0000000000000000    0.6234836800000000    0.6666666700000000 Se
   0.5000000000000000    0.1234836800000000    0.6666666700000000 Se
   0.5000000000000000    0.6234836800000000    0.6666666700000000 Se
   0.3765163200000000    0.3765163200000000    0.0000000000000000 Se
   0.3765163200000000    0.8765163200000000   -0.0000000000000000 Se
   0.8765163200000000    0.3765163200000000    0.0000000000000000 Se
   0.8765163200000000    0.8765163200000000    0.0000000000000000 Se
