Bi6 Se9
1.0
   2.0713334500000000   -3.5876547799999998   -0.0000000000000000
   2.0713334500000000    3.5876547799999998    0.0000000000000000
  -0.0000000000000000   -0.0000000000000000   29.2463116099999993
Bi Se
6 9
direct
   0.1821706300000000    0.5251695199999999    0.5656087600000000 Bi
   0.1821706300000000    0.5251695199999999    0.7591407700000000 Bi
   0.8488373000000000    0.8585028500000000    0.8903583000000000 Bi
   0.8488373000000000    0.8585028500000000    0.1096417000000000 Bi
   0.5155039700000000    0.1918361800000000    0.2408592300000000 Bi
   0.5155039700000000    0.1918361800000000    0.4343912400000000 Bi
   0.5155039700000000    0.1918361800000000    0.8247495300000000 Se
   0.8488373000000000    0.8585028500000000    0.7052937600000000 Se
   0.5155039700000000    0.1918361800000000    0.6194557800000000 Se
   0.1821706300000000    0.5251695199999999    0.1752504700000000 Se
   0.5155039700000000    0.1918361800000000    0.0557946900000000 Se
   0.1821706300000000    0.5251695199999999    0.9442053100000000 Se
   0.8488373000000000    0.8585028500000000    0.5000000000000000 Se
   0.1821706300000000    0.5251695199999999    0.3805442200000000 Se
   0.8488373000000000    0.8585028500000000    0.2947062400000000 Se
