Bi6 Se9
1.0
   2.0713334500000000   -3.5876547799999998   -0.0000000000000000
   2.0713334500000000    3.5876547799999998    0.0000000000000000
  -0.0000000000000000   -0.0000000000000000   29.0580282799999985
Bi Se
6 9
direct
   0.1821706300000000    0.5251695199999999    0.5660338800000000 Bi
   0.1821706300000000    0.5251695199999999    0.7608198900000001 Bi
   0.8488373000000000    0.8585028500000000    0.8928876500000000 Bi
   0.8488373000000000    0.8585028500000000    0.1071123500000000 Bi
   0.5155039700000000    0.1918361800000000    0.2391801100000000 Bi
   0.5155039700000000    0.1918361800000000    0.4339661200000000 Bi
   0.5155039700000000    0.1918361800000000    0.8268537700000000 Se
   0.8488373000000000    0.8585028500000000    0.7066239700000000 Se
   0.5155039700000000    0.1918361800000000    0.6202298000000001 Se
   0.1821706300000000    0.5251695199999999    0.1731462300000000 Se
   0.5155039700000000    0.1918361800000000    0.0529164300000000 Se
   0.1821706300000000    0.5251695199999999    0.9470835700000000 Se
   0.8488373000000000    0.8585028500000000    0.5000000000000000 Se
   0.1821706300000000    0.5251695199999999    0.3797702000000000 Se
   0.8488373000000000    0.8585028500000000    0.2933760300000000 Se
