Nb4 Se8
1.0
   1.7188249007017116   -2.9770920573298945    0.0000000000000000
   1.7188249007017116    2.9770920573298945    0.0000000000000000
   0.0000000000000000    0.0000000000000000   29.2735190000000003
Nb Se
4 8
direct
   0.0000000000000000    0.0000000000000000    0.0000000000000000 Nb
   0.0000000000000000    0.0000000000000000    0.2544430000000000 Nb
   0.3333333333333333    0.6666666666666666    0.5000000000000000 Nb
   0.0000000000000000    0.0000000000000000    0.7455570000000000 Nb
   0.0000000000000000    0.0000000000000000    0.0824540000000000 Se
   0.6666666666666666    0.3333333333333333    0.4417979999999990 Se
   0.6666666666666666    0.3333333333333333    0.8037550000000000 Se
   0.3333333333333333    0.6666666666666666    0.3127610000000000 Se
   0.6666666666666667    0.3333333333333334    0.5582020000000010 Se
   0.6666666666666667    0.3333333333333334    0.1962450000000000 Se
   0.0000000000000000    0.0000000000000000    0.9175460000000000 Se
   0.3333333333333333    0.6666666666666667    0.6872389999999999 Se
