Bi2 Se4
1.0
  11.3246125082838649   -2.3007536403640363    0.0140649857651921
  11.3246125082838649    2.3007536403640363    0.0140649857651921
  10.8522677689637366    0.0000000000000000    3.9709953834857048
Bi Se
2 4
direct
   0.3866900600000000    0.3866900600000000    0.3866900600000000 Bi
   0.6133099400000001    0.6133099400000001    0.6133099400000001 Bi
   0.3024414100000000    0.3024414100000000    0.3024414100000000 Se
   0.6975585900000000    0.6975585900000000    0.6975585900000000 Se
   0.1131242400000000    0.1131242400000000    0.1131242400000000 Se
   0.8868757600000000    0.8868757600000000    0.8868757600000000 Se
