Bi2 Se6
1.0
   5.8343344725989494   -0.0642309578396282   -0.6706510546533929
  -0.7448339520692160    5.7869516479240701   -0.6706510546533929
  -0.0571229692219175   -0.0642309578396282    5.8724757215679935
Bi Se
2 6
direct
   0.0000000000000000    0.0000000000000000    0.0000000000000000 Bi
   0.5000000000000000    0.5000000000000000    0.5000000000000000 Bi
   0.7601214200000000    0.7601214200000000    0.4147996300000000 Se
   0.7601214200000000    0.4147996300000000    0.7601214200000000 Se
   0.2398785800000000    0.5852003700000000    0.2398785800000000 Se
   0.2398785800000000    0.2398785800000000    0.5852003700000000 Se
   0.5852003700000000    0.2398785800000000    0.2398785800000000 Se
   0.4147996300000000    0.7601214200000000    0.7601214200000000 Se
