Nb4 Se8
1.0
   1.7578729492225067   -3.0447252613043267    0.0000000000000000
   1.7578729492225067    3.0447252613043267    0.0000000000000000
   0.0000000000000000    0.0000000000000000   26.2035533399999991
Nb Se
4 8
direct
   0.0000000000000000    0.0000000000000000    0.0000000000000000 Nb
   0.0000000000000000    0.0000000000000000    0.5000000000000000 Nb
   0.0000000000000000    0.0000000000000000    0.7500000000000000 Nb
   0.0000000000000000    0.0000000000000000    0.2500000000000000 Nb
   0.6666666666666666    0.3333333333333333    0.9371931200000000 Se
   0.3333333333333334    0.6666666666666667    0.0628068800000000 Se
   0.3333333333333333    0.6666666666666666    0.4371931199999999 Se
   0.6666666666666667    0.3333333333333334    0.5628068800000000 Se
   0.3333333333333333    0.6666666666666666    0.8134938700000001 Se
   0.6666666666666667    0.3333333333333334    0.1865061299999999 Se
   0.6666666666666667    0.3333333333333333    0.3134938700000001 Se
   0.3333333333333333    0.6666666666666667    0.6865061299999999 Se
