Bi12 Se9
1.0
   2.1363683600000001   -3.7002985399999999    0.0000000000000000
   2.1363683600000001    3.7002985399999999   -0.0000000000000000
  -0.0000000000000000    0.0000000000000000   39.8776574800000034
Bi Se
12 9
direct
   0.5521290400000000    0.3285228300000000    0.1755467400000000 Bi
   0.2187957100000000    0.6618561600000000    0.9277506599999999 Bi
   0.5521290400000000    0.3285228300000000    0.0339938300000000 Bi
   0.2187957100000000    0.6618561600000000    0.0781715200000000 Bi
   0.2187957100000000    0.6618561600000000    0.5059240800000000 Bi
   0.8854623700000001    0.9951894900000000    0.2669959600000000 Bi
   0.2187957100000000    0.6618561600000000    0.3643711800000000 Bi
   0.8854623700000001    0.9951894900000000    0.4085488700000000 Bi
   0.8854623700000001    0.9951894900000000    0.8363014300000000 Bi
   0.5521290400000000    0.3285228300000000    0.5973733100000000 Bi
   0.8854623700000001    0.9951894900000000    0.6947485300000000 Bi
   0.5521290400000000    0.3285228300000000    0.7389262200000000 Bi
   0.5521290400000000    0.3285228300000000    0.8820260500000000 Se
   0.8854623700000001    0.9951894900000000    0.9660061700000000 Se
   0.8854623700000001    0.9951894900000000    0.1372912300000000 Se
   0.2187957100000000    0.6618561600000000    0.2212713500000000 Se
   0.5521290400000000    0.3285228300000000    0.3052514700000000 Se
   0.5521290400000000    0.3285228300000000    0.4676685700000000 Se
   0.8854623700000001    0.9951894900000000    0.5516487000000000 Se
   0.2187957100000000    0.6618561600000000    0.6356288200000000 Se
   0.2187957100000000    0.6618561600000000    0.7980459200000000 Se
