Nb8 Se4
1.0
  -3.4460208271906621    0.0000000000000000    0.0000000000000000
   1.7220723047857600    7.0595324079802451    0.0000000000000000
  -0.0037122224544905   -0.3934562698043064   -9.3757703222939917
Nb Se
8 4
direct
   0.7819048499999991    0.5647152500000003    0.8784390200000001 Nb
   0.2180951500000009    0.4352847499999997    0.1215609799999999 Nb
   0.9152334900000000    0.8307024300000001    0.6020722900000002 Nb
   0.0847665100000000    0.1692975699999999    0.3979277099999998 Nb
   0.5858429500000001    0.1720390900000002    0.6446307100000002 Nb
   0.4141570499999999    0.8279609099999998    0.3553692899999998 Nb
   0.7437257300000001    0.4870407400000001    0.3769270299999999 Nb
   0.2562742699999999    0.5129592599999999    0.6230729700000001 Nb
   0.8607199700000000    0.7205339500000002    0.1409691700000001 Se
   0.1392800300000000    0.2794660499999998    0.8590308299999999 Se
   0.5772754800000001    0.1531594500000003    0.1846731800000001 Se
   0.4227245199999999    0.8468405499999997    0.8153268199999999 Se
