Nb4 Se6
1.0
   0.0000000000000000    7.1613488669994281    0.0000000000000000
   3.3492150000000001    0.0000000000000000    0.0000000000000000
   0.0000000000000000   -1.9923151798835732   -8.9453677042414821
Nb Se
4 6
direct
   0.5978759999999992    0.0000000000000000    0.5855080000000001 Nb
   0.2741240000000000    0.5000000000000000    0.7471100000000002 Nb
   0.9390610000000000    0.0000000000000000    0.9450809999999999 Nb
   0.5974650000000000    0.5000000000000000    0.0938570000000001 Nb
   0.9433030000000001    0.5000000000000000    0.1926900000000001 Se
   0.5437700000000000    0.0000000000000000    0.8623160000000000 Se
   0.2256050000000003    0.0000000000000000    0.5265050000000002 Se
   0.5980999999999991    0.0000000000000000    0.3144119999999991 Se
   0.2208749999999990    0.5000000000000000    0.0289530000000001 Se
   0.8931530000000001    0.5000000000000000    0.7035680000000001 Se
