Nb4 Se8
1.0
   1.7551696322118027   -3.0400429788928220    0.0000000000000000
   1.7551696322118027    3.0400429788928220    0.0000000000000000
   0.0000000000000000    0.0000000000000000   26.3380979500000016
Nb Se
4 8
direct
   0.0000000000000000    0.0000000000000000    0.5000000000000000 Nb
   0.6666666666666666    0.3333333333333333    0.0000000000000000 Nb
   0.6666666666666666    0.3333333333333333    0.2502937999999998 Nb
   0.6666666666666667    0.3333333333333334    0.7497062000000002 Nb
   0.0000000000000000    0.0000000000000000    0.3129072399999998 Se
   0.0000000000000000    0.0000000000000000    0.0632201999999989 Se
   0.0000000000000000    0.0000000000000000    0.6870927600000002 Se
   0.3333333333333333    0.6666666666666666    0.1877368299999998 Se
   0.3333333333333333    0.6666666666666666    0.4367477499999997 Se
   0.3333333333333333    0.6666666666666667    0.5632522500000003 Se
   0.0000000000000000    0.0000000000000000    0.9367798000000012 Se
   0.3333333333333333    0.6666666666666667    0.8122631700000003 Se
