Bi128 Se192
1.0
  16.8642930000000000    0.0000000000000000    0.0000000000000000
   0.0000000000000000   23.1650869999999998    0.0000000000000000
   0.0000000000000000    0.0000000000000000   24.4724530000000016
Bi Se
128 192
direct
   0.0645992097030098    0.5121716141191268    0.4355223401593620 Bi
   0.0811288086609975    0.5053207872692211    0.9347612190735436 Bi
   0.0770877261205080    0.9970089902964752    0.4401356905251794 Bi
   0.0851384638537767   -0.0053651428116804    0.9446049400932550 Bi
   0.3017695434964276    0.4852302087188363    0.4284286499600183 Bi
   0.3205630974272091    0.5047552810831231    0.9251095507262799 Bi
   0.3137160864081287    0.9832987029144332    0.4503553444356395 Bi
   0.3402615217845183    1.0073607752908504    0.9339194562964325 Bi
   0.5720067838005424    0.4868317567725949    0.4343087307185757 Bi
   0.5822218577440512    0.5022212953484699    0.9440042647134719 Bi
   0.5834854743095368    1.0060700397973901    0.4395963085514966 Bi
   0.5937871217014552    0.9827979493450640    0.9180771539330365 Bi
   0.8091296800879824    0.4977663153175294    0.4210080615948062 Bi
   0.8336963784962701    0.4820357462935494    0.9177420833130212 Bi
   0.8245527992190363    1.0019172386445170    0.4281467002919568 Bi
   0.8275769402251253   -0.0028908158212400    0.9211949451900060 Bi
   0.2346887592619507    0.0349935659641598    0.0853555628444766 Bi
   0.2113661094479324    0.0379453787503582    0.5968751886049183 Bi
   0.2077051199240905    0.5230457368884478    0.0822557509866297 Bi
   0.1878798002382905    0.5279798862831813    0.5817724933417994 Bi
   0.4797787846783734    0.0301147153041126    0.1024147436303177 Bi
   0.4513079795281071    0.0164538125844293    0.5846410247472944 Bi
   0.4646450343337844    0.5193375703704459    0.0890589104410579 Bi
   0.4295323853777920    0.5106823039343648    0.5774778686877037 Bi
   0.7017489556188332    0.0152479461872947    0.0903791704084588 Bi
   0.7245723256824345    0.0346096692837804    0.5775064722772171 Bi
   0.7246434819414012    0.5206585237517131    0.0854752892977259 Bi
   0.7041504793589627    0.5295943848602858    0.5750629084873510 Bi
   0.9583917926473408    0.0228628539146000    0.0862917174669822 Bi
   0.9676243172482831    0.0385010857071247    0.5852049240834174 Bi
   0.9668178796466593    0.5175072297375788    0.0939480811343268 Bi
   0.9442850643071725    0.5332248482382130    0.5874564352008358 Bi
   0.2011314675332076    0.2711028022471921    0.3224866751199808 Bi
   0.1898448989234236    0.2559580285625520    0.8363893885096029 Bi
   0.1897245262520048    0.7407397174895135    0.3575624396949501 Bi
   0.2103367155682127    0.7427988507014889    0.8351553479334499 Bi
   0.4385004458829077    0.2555954139088707    0.3389778703426256 Bi
   0.4304633464326076    0.2228836869898222    0.8399321473822015 Bi
   0.4557107730516779    0.7393669620148633    0.3462685166869051 Bi
   0.4680729871095100    0.7509619972504313    0.8269706351055204 Bi
   0.7003969866984640    0.2315553574221414    0.3333290700364201 Bi
   0.6856142738981112    0.2173158253193696    0.8280453128258126 Bi
   0.7029289635800327    0.7517735633800987    0.3561167325563971 Bi
   0.7128078241999235    0.7420477203474349    0.8404347533122241 Bi
   0.9515904402277640    0.2633346466602953    0.3156124153144762 Bi
   0.9492837914995903    0.2515086604250613    0.8298800287817489 Bi
   0.9582969176353850    0.7230536194403242    0.3621721124564014 Bi
   0.9388416104962123    0.7389439115855684    0.8341378773921845 Bi
   0.0733662537765443    0.2845717782108912    0.1869640938732214 Bi
   0.0434138567208243    0.2789413223442675    0.6834745989705240 Bi
   0.0771043292476002    0.7793538612654466    0.1940990549660060 Bi
   0.0724649411629648    0.7739664435536115    0.6772349302295114 Bi
   0.3285296335873671    0.2843257182673219    0.1760044242397769 Bi
   0.3027111779900883    0.2650164879587977    0.6836421342805316 Bi
   0.3232278993255158    0.7737117499278118    0.2068509437938240 Bi
   0.3307906237160372    0.7588963512202652    0.6854114706032942 Bi
   0.5817866186267043    0.2588278645359718    0.1678940807445825 Bi
   0.5536775244595192    0.2676786838745739    0.6849047784461981 Bi
   0.5628021287343620    0.7758356357565159    0.2092573229173226 Bi
   0.5898557383935394    0.7678235786466073    0.6843817413808088 Bi
   0.8322436048756979    0.2694934838794260    0.1853957999224679 Bi
   0.7943647563523712    0.2590968037374520    0.6829229583156212 Bi
   0.8114244694396616    0.7736513141521982    0.2077405154276933 Bi
   0.8016582728964682    0.7830274930545265    0.6973187362950497 Bi
   0.0902213926193052    0.1155329138198359    0.2294101862204005 Bi
   0.0516281352559517    0.0856936129788764    0.7425941322678197 Bi
   0.0710690925495661    0.6053160948629289    0.2583255548595803 Bi
   0.0859828514601828    0.6040210425283532    0.7588981782905048 Bi
   0.3155637772659666    0.0968474670524656    0.2256516745583289 Bi
   0.3021591240142709    0.0976352905559992    0.7283413722359585 Bi
   0.3299841861144134    0.5953916771389635    0.2368381297943447 Bi
   0.3270857544991658    0.5810381804307491    0.7462267881360319 Bi
   0.5720785330283339    0.0845319510347619    0.2430287638104770 Bi
   0.5418501682815875    0.0942746297477752    0.7576191892165448 Bi
   0.5965681454894077    0.5814051119255456    0.2541841637207353 Bi
   0.5603128456081734    0.5760953973537851    0.7524501119687511 Bi
   0.8250686820965456    0.0694575418603004    0.2324278649140730 Bi
   0.8205799080933899    0.0928608642825300    0.7394599961025565 Bi
   0.8278793543257342    0.5891667922507695    0.2465874589686616 Bi
   0.8498962867877118    0.6078500805975821    0.7423939071412251 Bi
   0.1569357221201031    0.4388500677765640    0.2647535986686745 Bi
   0.1912093201891120    0.4268177365360208    0.7601853398186115 Bi
   0.2123522166034473    0.9323513440722239    0.2504321900219810 Bi
   0.1750977642525542    0.9261955286418739    0.7508033624581891 Bi
   0.4565349997180433    0.4198991352806057    0.2812215023970012 Bi
   0.4224570813611931    0.4166312865563597    0.7751531895883097 Bi
   0.4374929918497028    0.9317081347460514    0.2644973922311752 Bi
   0.4309033293005523    0.9078316865375901    0.7714347229515570 Bi
   0.7096413706759007    0.4202561380408371    0.2737902898413984 Bi
   0.7035752995989810    0.4330309659532037    0.7854872578568236 Bi
   0.6929611576364333    0.9148249691442990    0.2644818645682964 Bi
   0.6895871650237576    0.9279179482468597    0.7800811794387754 Bi
   0.9219004911738665    0.4411509440909935    0.2650903037795189 Bi
   0.9529305497716387    0.4393983065982010    0.7882086850876779 Bi
   0.9519402918343507    0.9428973869167857    0.2527797274756233 Bi
   0.9357225944781675    0.9209592003690726    0.7633603382546080 Bi
   0.1887384190964898    0.3424377383085158    0.5097527411739231 Bi
   0.2011966941039272    0.3525059068416190    0.0157133001746903 Bi
   0.1766809910145655    0.8496320346217565    0.5194616167002138 Bi
   0.2110672531602718    0.8477067234843539    0.0095135130099136 Bi
   0.4276277695127806    0.3393157988139652    0.5164664122554449 Bi
   0.4523130616860131    0.3438873335550175    0.0311925004003481 Bi
   0.4637004349960001    0.8300681106874324    0.5190162179492182 Bi
   0.4450770631179143    0.8409422334567533    0.0254478372070017 Bi
   0.6869899615714693    0.3255347152376333    0.5173163474867026 Bi
   0.7000115569623938    0.3164149566975510   -0.0067133850456266 Bi
   0.6996379866028181    0.8298565854727851    0.5125395480379511 Bi
   0.7115685193562516    0.8327445521788890    0.0037926725204049 Bi
   0.9326925237838313    0.3502020087384088    0.5304249639380245 Bi
   0.9333447894910269    0.3388754810202095    0.0215736035942126 Bi
   0.9575675659809754    0.8281212153444535    0.5025282917082321 Bi
   0.9444392362016006    0.8677368662591252    0.0099479198100820 Bi
   0.0872648500592346    0.1788514759301358   -0.0072901151347599 Bi
   0.0907384614344639    0.1823433687082635    0.4746561368408798 Bi
   0.0868663750090205    0.6658338904576530    0.0023587745780940 Bi
   0.0564347405491591    0.6669476354653880    0.4945274590986036 Bi
   0.3305350541525814    0.1831242852660126   -0.0085529636117802 Bi
   0.3256525488498095    0.1719902886615535    0.5077218863184658 Bi
   0.3462202655041631    0.6856481911766618    0.9813401214827135 Bi
   0.3352527141220803    0.6571009208814973    0.5035661933848641 Bi
   0.5767161422064951    0.1628804588560362    0.0041393888875790 Bi
   0.5666327073420747    0.1619544964368146    0.5104964345012737 Bi
   0.5947121530680237    0.6851258534017162    1.0112880797033299 Bi
   0.5904036415875838    0.6663562282325985    0.4891663291783622 Bi
   0.8231474631044420    0.1778370182680514    0.9917640867468414 Bi
   0.8202597049280393    0.1872874468375621    0.4740881512776835 Bi
   0.8536912872659411    0.6827688581527883   -0.0080747933196562 Bi
   0.8158242981191088    0.6716918438510505    0.4961047427489185 Bi
   0.0949621783729682    0.1773138171248828    0.3469349803225691 Se
   0.0681754046849162    0.1711592967468674    0.8540623206018619 Se
   0.0735085662944779    0.6524430493181399    0.3644930894340669 Se
   0.0701725236865844    0.6666972586807035    0.8570575250466309 Se
   0.3190445042670926    0.1625977057629872    0.3565122793370978 Se
   0.2936547651300888    0.1580417116499498    0.8631582620671494 Se
   0.3074235012401646    0.6618235450615835    0.3672410771408979 Se
   0.3402211999044371    0.6667404270918560    0.8554557240338758 Se
   0.5640965796787331    0.1663278881706769    0.3421013823174979 Se
   0.5665016612318108    0.1357059440355221    0.8563955562607475 Se
   0.5768809875397681    0.6613745935855972    0.3643177902926200 Se
   0.5928466731454440    0.6638826782735588    0.8578747704613018 Se
   0.8529322871702952    0.1648165620962270    0.3434616873102177 Se
   0.8167078216679465    0.1551692855718608    0.8575274411600667 Se
   0.8167730482386661    0.6507163128720389    0.3805286703380327 Se
   0.8398573245851456    0.6632826373585388    0.8616667891853750 Se
   0.1844186412083803    0.3671663309531279    0.1531338113102107 Se
   0.1745836602815191    0.3653377170567069    0.6526317570208430 Se
   0.2031552701319883    0.8526408728790875    0.1566140509085869 Se
   0.1878661619553218    0.8480693381380352    0.6477078533974505 Se
   0.4731197447767304    0.3539175138863066    0.1688379991985274 Se
   0.4192514918947388    0.3509319865709980    0.6602566567397228 Se
   0.4254361567366032    0.8549503828757475    0.1599353362738096 Se
   0.4580939147582410    0.8417063143341530    0.6676813313320082 Se
   0.6959082126953083    0.3467329952181920    0.1535841135336944 Se
   0.6702919594672602    0.3438938088166904    0.6387508436526571 Se
   0.6815049999427785    0.8372686016676735    0.1785987698086497 Se
   0.6880217273264879    0.8530725569906128    0.6481982006462531 Se
   0.9536421123613067    0.3573796204607391    0.1501402413562710 Se
   0.9310440704511004    0.3638678326569635    0.6632559474115651 Se
   0.9524561747118601    0.8511256616476338    0.1721539724685547 Se
   0.9345010786992375    0.8504565512747697    0.6736921713569128 Se
   0.1796375335746360    0.4190789354687078    0.4047526416742939 Se
   0.1897298629714273    0.4079932874847395    0.9146651543267852 Se
   0.1866161836728050    0.9100030576185620    0.4207383706079648 Se
   0.2255001143540379    0.9075683592295597    0.9080209491055105 Se
   0.4563333903176374    0.4027276046923545    0.4088842258681628 Se
   0.4626218247038283    0.4196867466977353    0.9053975913244168 Se
   0.4517503342713507    0.9145832260418448    0.4188382750188548 Se
   0.4523338155948785    0.9211448245370286    0.9072282210532797 Se
   0.6794948356269663    0.4084702984279748    0.4077940204849918 Se
   0.6974677207043307    0.4158520967350566    0.9270505085861233 Se
   0.7135193867895914    0.9191677113062430    0.4163947112289887 Se
   0.7256396695669364    0.9128694401190895    0.9071669276471794 Se
   0.9478250881907708    0.4217804146386328    0.4172119566436597 Se
   0.9605146210398502    0.4118059215577304    0.9034852370540868 Se
   0.9595836599850346    0.9117643287935849    0.4045949133092624 Se
   0.9625781525498874    0.9293338721326624    0.9082497778216183 Se
   0.0975718341705757    0.1075044527136894    0.1027677936494556 Se
   0.0949805604065347    0.1060980258783401    0.6160191624435850 Se
   0.0699958189768169    0.6188450749181300    0.1129208420586199 Se
   0.0792277506089345    0.6158923555952974    0.6041118967518294 Se
   0.3593319921564455    0.1110244049590662    0.1043528411312099 Se
   0.3343982460456539    0.1070801072320600    0.6203914254120745 Se
   0.3337934178444362    0.6054412832552712    0.1157807923872609 Se
   0.3039107539225036    0.6078673479620431    0.6110217067328723 Se
   0.5890777632955025    0.1050486018032223    0.1206920287067259 Se
   0.5566577857725787    0.1005642672526980    0.6042181386557366 Se
   0.5979438331627658    0.6029979511840383    0.1249049288193545 Se
   0.5670282175481652    0.5922187989192530    0.6076832592139414 Se
   0.8239064632000879    0.0914237878752625    0.1185553405700687 Se
   0.8441326298114008    0.0984585121566779    0.6103147894491818 Se
   0.8359793084714550    0.6149340168677113    0.1219183054514396 Se
   0.8376870586866583    0.6210250796813326    0.6046104164547788 Se
   0.0404594488485227    0.4900909718146105    0.2035488636958461 Se
   0.0695795548618611    0.4936739499402701    0.7038403547041238 Se
   0.0845496458108265    0.9819086800753219    0.1863842582515124 Se
   0.0464184297556974    0.9779889883426729    0.6932570265841351 Se
   0.3156011343019242    0.4721847148685434    0.1907908455274181 Se
   0.3325843544108252    0.4893053067316346    0.6991984007487929 Se
   0.3222506867023717    0.9733440673026611    0.1883771111951875 Se
   0.3241671619438775    0.9611662585165340    0.7000074737093172 Se
   0.5956075359933558    0.4709889498796185    0.2128912046536569 Se
   0.5743751012864873    0.4726293495034143    0.7025695380843104 Se
   0.5516987874914174    0.9761197961397684    0.1881021081131507 Se
   0.5715899267167618    0.9724159464628819    0.7134511607806541 Se
   0.8123732195592190    0.4728236073536007    0.1921278590258197 Se
   0.8422232701957917    0.4871684703795846    0.7127319848157435 Se
   0.8016938510259516    0.9607173070405477    0.1878148463498939 Se
   0.8061233281466349    0.9791761196493672    0.7096959181002410 Se
   0.2110696250355707    0.0398108584699034    0.2983272661714785 Se
   0.1805756102553484    0.0380562783986091    0.8039284006388733 Se
   0.1984832687619932    0.5488172783465048    0.3155597029852300 Se
   0.1934080485911861    0.5324780347252743    0.8161625644964973 Se
   0.4402609703235113    0.0457960723393787    0.3083556846549056 Se
   0.3962881811885028    0.0446542678643944    0.8139968641476193 Se
   0.4404311523762069    0.5316880528011831    0.3306685275889588 Se
   0.4349206930880529    0.5340148301623042    0.8221121111153017 Se
   0.6921547200348096    0.0406395624587985    0.3199192986497920 Se
   0.6981377754762681    0.0386879185905928    0.8193947701115208 Se
   0.7097362456878565    0.5327370451921895    0.3089988567962517 Se
   0.7257523336436339    0.5410210632923589    0.8380157068847980 Se
   0.9483824788860108    0.0396406454247290    0.3172926718870396 Se
   0.9430635485282424    0.0442916532107132    0.8147242125666765 Se
   0.9430754079047369    0.5467797293401057    0.3172366905761347 Se
   0.9505646041609926    0.5425405913649278    0.8460860053546736 Se
   0.1919007218387394    0.2281049063187201    0.0674493071863290 Se
   0.1883927182716761    0.2334638328791945    0.5578149440107208 Se
   0.2080413332477086    0.7259415861464281    0.0695185725762759 Se
   0.1950926730222251    0.7299217136546908    0.5495362479601043 Se
   0.4530014984915169    0.2240699549282936    0.0678003140919302 Se
   0.4311357730798439    0.2243514129690081    0.5775636794562441 Se
   0.4476262360953999    0.7284669381988508    0.0884884731416176 Se
   0.4639927686265887    0.7130126470062470    0.5629717625772945 Se
   0.7070204484706237    0.2210149264710295    0.0631060564300604 Se
   0.7231907083208290    0.2206156186678686    0.5571938374955709 Se
   0.7339412331130631    0.7236752445609205    0.0522975771983299 Se
   0.6761860695850102    0.7223327069740770    0.5614639447872266 Se
   0.9438047595591467    0.2210632750915203    0.0694303100714914 Se
   0.9543299561979859    0.2204304261840243    0.5610267184903777 Se
   0.9550948859818789    0.7414649467968759    0.0657706851045949 Se
   0.9560436361014364    0.7310613597091175    0.5720268417718485 Se
   0.0610242006587528    0.3010668597963824    0.4469269999210949 Se
   0.0592506902008878    0.2899220710891351    0.9587882342648690 Se
   0.0680574038887963    0.7755377737195635    0.4424525812757715 Se
   0.0810208883348979    0.7989652704520385    0.9449073208966832 Se
   0.3217413264819343    0.2919859528263374    0.4484961111172631 Se
   0.3239732611381930    0.2962820731042366    0.9563896189728099 Se
   0.3132019824370936    0.7781451457531759    0.4463426694496052 Se
   0.3409576671847435    0.7932886243854815    0.9435833833249162 Se
   0.5450421194650733    0.2798292965616749    0.4524148028806103 Se
   0.5847864479109797    0.2541259611932388    0.9475797134026571 Se
   0.5820285499071914    0.7839426633709600    0.4409161598961902 Se
   0.5707188555132432    0.7898524188577406    0.9461577063811298 Se
   0.8108967271856579    0.3019509488567861    0.4444057978168351 Se
   0.8209534784529656    0.3009727526600699    0.9329305893446806 Se
   0.8145138370164702    0.7827943836343029    0.4460974958252039 Se
   0.8543850607908674    0.7853111020044951    0.9445232155517879 Se
   0.0787699786762481    0.4427524921447522    0.0379151611814312 Se
   0.0757292345430668    0.4451267547581411    0.5507335124925973 Se
   0.0693773524926304    0.9405965106023562    0.0524246588603112 Se
   0.0782303770457499    0.9501928484015623    0.5527357637585411 Se
   0.3191376003725742    0.4404170811014006    0.0413579300775447 Se
   0.3062179956195021    0.4365880430321717    0.5463612495241077 Se
   0.3509450410995587    0.9519066343243174    0.0435179097085200 Se
   0.3331654638590541    0.9117729624758155    0.5577046158797403 Se
   0.5601841713732084    0.4372830544517273    0.0372397487084764 Se
   0.5707295289520883    0.4401839716811770    0.5494504371915638 Se
   0.5884094874300393    0.9171517465054200    0.0274628783636851 Se
   0.5919251995918240    0.9356882622543141    0.5460057477687259 Se
   0.8587374519643366    0.4487960697061056    0.0439383824743682 Se
   0.8062419219115796    0.4474751163248384    0.5360190088014470 Se
   0.8242385257419329    0.9360077084968428    0.0352070550508361 Se
   0.8529560059232841    0.9399230833883767    0.5447267586947658 Se
   0.2003481557157480    0.0668488747743533    0.4717058808939177 Se
   0.2180038024718854    0.0844892143077209    0.9773969123569263 Se
   0.1786704014215123    0.5772048255204050    0.4790079686740025 Se
   0.1914067788077448    0.5742823240853790    0.9858717473070638 Se
   0.4385775318301218    0.0701974484274547    0.4824485718697671 Se
   0.4659898876282569    0.0859936334363864    0.9641003294602302 Se
   0.4310841847920929    0.5652385419489252    0.4643343272535859 Se
   0.4692500302265858    0.5935095344127135    0.9723994566462135 Se
   0.7050280732195532    0.0832899958459038    0.4661690432095221 Se
   0.7186485671234484    0.0847577218250896    0.9740462061567754 Se
   0.6809653983122802    0.5625275657285467    0.4691887650167312 Se
   0.6944910172042196    0.5830152936615347    0.9833995799276842 Se
   0.9735006383012914    0.0913827778846676    0.4601214271409572 Se
   0.9702393097653130    0.0882150798742953    0.9671404824028059 Se
   0.9349813834472633    0.5673581109365141    0.4700223553396956 Se
   0.9695099581109033    0.5630283192979160    0.9867421136736885 Se
   0.2106545468582644    0.2031302537305386    0.2229592595396955 Se
   0.1975084280141480    0.2049187210045876    0.7348548181908857 Se
   0.1978191436783030    0.6960647287877659    0.2222020816630029 Se
   0.1998637001859491    0.6864554404652139    0.7135369715491945 Se
   0.4476683368819553    0.1996038262234889    0.2265763877450291 Se
   0.4254580965831179    0.1948665247836108    0.7341724182696355 Se
   0.4470753680572319    0.6930990589415875    0.2408266960406462 Se
   0.4436284402791152    0.6853028438874416    0.7309361264275386 Se
   0.7063029561927084    0.2031293903623155    0.2312567522348495 Se
   0.6862724692935540    0.1793811523349772    0.7133653500121135 Se
   0.6687680295877212    0.6905348553191275    0.2325790553157871 Se
   0.7057752139387047    0.6808392301742705    0.7377682980941876 Se
   0.9650330434842420    0.1852455809900476    0.2130252329016629 Se
   0.9202994753471135    0.2032036400294979    0.7232417608484119 Se
   0.9338013754860639    0.6958359362086575    0.2484585423455507 Se
   0.9750186384925832    0.6864209057362919    0.7313937838597544 Se
   0.0663692216448089    0.3469548808515159    0.2928807341054041 Se
   0.0706635018734553    0.3396922273592152    0.7970839702910042 Se
   0.0604780763711826    0.8069902780852928    0.3126110815290972 Se
   0.0638396166385392    0.8403551430650790    0.7795622286004594 Se
   0.3071382832354727    0.3376391377248011    0.2929309946984064 Se
   0.3198817762476019    0.3203605494768917    0.8077285918170932 Se
   0.3238849087833092    0.8228201344549235    0.3122817316269848 Se
   0.3122965190417410    0.8310091820505574    0.7987388922557129 Se
   0.5944156686556620    0.3273318161939129    0.3065512067793122 Se
   0.5538115354139067    0.3113327396525642    0.7914082008861145 Se
   0.5548006074135453    0.8532193295885313    0.3101376882815956 Se
   0.5849459565248302    0.8251253276104684    0.7839549227043158 Se
   0.8305892218547200    0.3354716518008329    0.2956507874384313 Se
   0.8243867679481137    0.3205988391064536    0.7930590366237500 Se
   0.8427747312027845    0.8270463219067556    0.3196177350917785 Se
   0.8279327215199593    0.8251771297038515    0.7935330389642590 Se
