Bi288 Se216
1.0
  17.1408839999999998    0.0000000000000000    0.0000000000000000
   0.0000000000000000   22.2666620000000002    0.0000000000000000
   0.0000000000000000    0.0000000000000000   41.6504580000000004
Bi Se
288 216
direct
   0.0000000000000000    0.6666648103788525    0.2886738964551122 Bi
   0.1249999708299759    0.8333355039924709    0.2886738964551122 Bi
   0.0000000000000000    0.3333333033932073    0.2886738964551122 Bi
   0.1249999708299759    0.4999986077841394    0.2886738964551122 Bi
   0.2499999416599517    0.6666648103788525    0.2886738964551122 Bi
   0.3749999124899276    0.8333355039924709    0.2886738964551122 Bi
   0.0000000000000000    0.0000000000000000    0.2886738964551122 Bi
   0.1249999708299759    0.1666666516966037    0.2886738964551122 Bi
   0.2499999416599517    0.3333333033932073    0.2886738964551122 Bi
   0.3749999124899276    0.4999986077841394    0.2886738964551122 Bi
   0.4999998833199034    0.6666648103788525    0.2886738964551122 Bi
   0.6250027711522930    0.8333355039924709    0.2886738964551122 Bi
   0.2499999416599517    0.0000000000000000    0.2886738964551122 Bi
   0.3749999124899276    0.1666666516966037    0.2886738964551122 Bi
   0.4999998833199034    0.3333333033932073    0.2886738964551122 Bi
   0.6250027711522930    0.4999986077841394    0.2886738964551122 Bi
   0.7500021585817861    0.6666648103788525    0.2886738964551122 Bi
   0.8750015460112792    0.8333355039924709    0.2886738964551122 Bi
   0.4999998833199034    0.0000000000000000    0.2886738964551122 Bi
   0.6250027711522930    0.1666666516966037    0.2886738964551122 Bi
   0.7500021585817861    0.3333333033932073    0.2886738964551122 Bi
   0.8750015460112792    0.4999986077841394    0.2886738964551122 Bi
   0.7500021585817861    0.0000000000000000    0.2886738964551122 Bi
   0.8750015460112792    0.1666666516966037    0.2886738964551122 Bi
   0.1249999708299759    0.6111109065202499    0.0446595329155804 Bi
   0.2499999416599517    0.7777771091149630    0.0446595329155804 Bi
   0.1249999708299759    0.2777776031270426    0.0446595329155804 Bi
   0.2499999416599517    0.4444442548236462    0.0446595329155804 Bi
   0.3749999124899276    0.6111109065202499    0.0446595329155804 Bi
   0.4999998833199034    0.7777771091149630    0.0446595329155804 Bi
   0.1249999708299759    0.9444433117096761    0.0446595329155804 Bi
   0.2499999416599517    0.1111109514304389    0.0446595329155804 Bi
   0.3749999124899276    0.2777776031270426    0.0446595329155804 Bi
   0.4999998833199034    0.4444442548236462    0.0446595329155804 Bi
   0.6250027711522930    0.6111109065202499    0.0446595329155804 Bi
   0.7500021585817861    0.7777771091149630    0.0446595329155804 Bi
   0.3749999124899276    0.9444433117096761    0.0446595329155804 Bi
   0.4999998833199034    0.1111109514304389    0.0446595329155804 Bi
   0.6250027711522930    0.2777776031270426    0.0446595329155804 Bi
   0.7500021585817861    0.4444442548236462    0.0446595329155804 Bi
   0.8750015460112792    0.6111109065202499    0.0446595329155804 Bi
   0.0000000000000000    0.7777771091149630    0.0446595329155804 Bi
   0.6250027711522930    0.9444433117096761    0.0446595329155804 Bi
   0.7500021585817861    0.1111109514304389    0.0446595329155804 Bi
   0.8750015460112792    0.2777776031270426    0.0446595329155804 Bi
   0.0000000000000000    0.4444442548236462    0.0446595329155804 Bi
   0.8750015460112792    0.9444433117096761    0.0446595329155804 Bi
   0.0000000000000000    0.1111109514304389    0.0446595329155804 Bi
   0.0000000000000000    0.6666648103788525    0.1459563781987704 Bi
   0.1249999708299759    0.8333355039924709    0.1459563781987704 Bi
   0.0000000000000000    0.3333333033932073    0.1459563781987704 Bi
   0.1249999708299759    0.4999986077841394    0.1459563781987704 Bi
   0.2499999416599517    0.6666648103788525    0.1459563781987704 Bi
   0.3749999124899276    0.8333355039924709    0.1459563781987704 Bi
   0.0000000000000000    0.0000000000000000    0.1459563781987704 Bi
   0.1249999708299759    0.1666666516966037    0.1459563781987704 Bi
   0.2499999416599517    0.3333333033932073    0.1459563781987704 Bi
   0.3749999124899276    0.4999986077841394    0.1459563781987704 Bi
   0.4999998833199034    0.6666648103788525    0.1459563781987704 Bi
   0.6250027711522930    0.8333355039924709    0.1459563781987704 Bi
   0.2499999416599517    0.0000000000000000    0.1459563781987704 Bi
   0.3749999124899276    0.1666666516966037    0.1459563781987704 Bi
   0.4999998833199034    0.3333333033932073    0.1459563781987704 Bi
   0.6250027711522930    0.4999986077841394    0.1459563781987704 Bi
   0.7500021585817861    0.6666648103788525    0.1459563781987704 Bi
   0.8750015460112792    0.8333355039924709    0.1459563781987704 Bi
   0.4999998833199034    0.0000000000000000    0.1459563781987704 Bi
   0.6250027711522930    0.1666666516966037    0.1459563781987704 Bi
   0.7500021585817861    0.3333333033932073    0.1459563781987704 Bi
   0.8750015460112792    0.4999986077841394    0.1459563781987704 Bi
   0.7500021585817861    0.0000000000000000    0.1459563781987704 Bi
   0.8750015460112792    0.1666666516966037    0.1459563781987704 Bi
   0.1249999708299759    0.6111109065202499    0.1873770511719223 Bi
   0.2499999416599517    0.7777771091149630    0.1873770511719223 Bi
   0.1249999708299759    0.2777776031270426    0.1873770511719223 Bi
   0.2499999416599517    0.4444442548236462    0.1873770511719223 Bi
   0.3749999124899276    0.6111109065202499    0.1873770511719223 Bi
   0.4999998833199034    0.7777771091149630    0.1873770511719223 Bi
   0.1249999708299759    0.9444433117096761    0.1873770511719223 Bi
   0.2499999416599517    0.1111109514304389    0.1873770511719223 Bi
   0.3749999124899276    0.2777776031270426    0.1873770511719223 Bi
   0.4999998833199034    0.4444442548236462    0.1873770511719223 Bi
   0.6250027711522930    0.6111109065202499    0.1873770511719223 Bi
   0.7500021585817861    0.7777771091149630    0.1873770511719223 Bi
   0.3749999124899276    0.9444433117096761    0.1873770511719223 Bi
   0.4999998833199034    0.1111109514304389    0.1873770511719223 Bi
   0.6250027711522930    0.2777776031270426    0.1873770511719223 Bi
   0.7500021585817861    0.4444442548236462    0.1873770511719223 Bi
   0.8750015460112792    0.6111109065202499    0.1873770511719223 Bi
   0.0000000000000000    0.7777771091149630    0.1873770511719223 Bi
   0.6250027711522930    0.9444433117096761    0.1873770511719223 Bi
   0.7500021585817861    0.1111109514304389    0.1873770511719223 Bi
   0.8750015460112792    0.2777776031270426    0.1873770511719223 Bi
   0.0000000000000000    0.4444442548236462    0.1873770511719223 Bi
   0.8750015460112792    0.9444433117096761    0.1873770511719223 Bi
   0.0000000000000000    0.1111109514304389    0.1873770511719223 Bi
   0.1249999708299759    0.6111109065202499    0.6220075659192031 Bi
   0.2499999416599517    0.7777771091149630    0.6220075659192031 Bi
   0.1249999708299759    0.2777776031270426    0.6220075659192031 Bi
   0.2499999416599517    0.4444442548236462    0.6220075659192031 Bi
   0.3749999124899276    0.6111109065202499    0.6220075659192031 Bi
   0.4999998833199034    0.7777771091149630    0.6220075659192031 Bi
   0.1249999708299759    0.9444433117096761    0.6220075659192031 Bi
   0.2499999416599517    0.1111109514304389    0.6220075659192031 Bi
   0.3749999124899276    0.2777776031270426    0.6220075659192031 Bi
   0.4999998833199034    0.4444442548236462    0.6220075659192031 Bi
   0.6250027711522930    0.6111109065202499    0.6220075659192031 Bi
   0.7500021585817861    0.7777771091149630    0.6220075659192031 Bi
   0.3749999124899276    0.9444433117096761    0.6220075659192031 Bi
   0.4999998833199034    0.1111109514304389    0.6220075659192031 Bi
   0.6250027711522930    0.2777776031270426    0.6220075659192031 Bi
   0.7500021585817861    0.4444442548236462    0.6220075659192031 Bi
   0.8750015460112792    0.6111109065202499    0.6220075659192031 Bi
   0.0000000000000000    0.7777771091149630    0.6220075659192031 Bi
   0.6250027711522930    0.9444433117096761    0.6220075659192031 Bi
   0.7500021585817861    0.1111109514304389    0.6220075659192031 Bi
   0.8750015460112792    0.2777776031270426    0.6220075659192031 Bi
   0.0000000000000000    0.4444442548236462    0.6220075659192031 Bi
   0.8750015460112792    0.9444433117096761    0.6220075659192031 Bi
   0.0000000000000000    0.1111109514304389    0.6220075659192031 Bi
   0.1249999708299759    0.7222232052563603    0.3779934424730696 Bi
   0.2499999416599517    0.8888894078510735    0.3779934424730696 Bi
   0.1249999708299759    0.3888890036593720    0.3779934424730696 Bi
   0.2499999416599517    0.5555570026616473    0.3779934424730696 Bi
   0.3749999124899276    0.7222232052563603    0.3779934424730696 Bi
   0.4999998833199034    0.8888894078510735    0.3779934424730696 Bi
   0.1249999708299759    0.0555557002661647    0.3779934424730696 Bi
   0.2499999416599517    0.2222223519627684    0.3779934424730696 Bi
   0.3749999124899276    0.3888890036593720    0.3779934424730696 Bi
   0.4999998833199034    0.5555570026616473    0.3779934424730696 Bi
   0.6250027711522930    0.7222232052563603    0.3779934424730696 Bi
   0.7500021585817861    0.8888894078510735    0.3779934424730696 Bi
   0.3749999124899276    0.0555557002661647    0.3779934424730696 Bi
   0.4999998833199034    0.2222223519627684    0.3779934424730696 Bi
   0.6250027711522930    0.3888890036593720    0.3779934424730696 Bi
   0.7500021585817861    0.5555570026616473    0.3779934424730696 Bi
   0.8750015460112792    0.7222232052563603    0.3779934424730696 Bi
   0.0000000000000000    0.8888894078510735    0.3779934424730696 Bi
   0.6250027711522930    0.0555557002661647    0.3779934424730696 Bi
   0.7500021585817861    0.2222223519627684    0.3779934424730696 Bi
   0.8750015460112792    0.3888890036593720    0.3779934424730696 Bi
   0.0000000000000000    0.5555570026616473    0.3779934424730696 Bi
   0.8750015460112792    0.0555557002661647    0.3779934424730696 Bi
   0.0000000000000000    0.2222223519627684    0.3779934424730696 Bi
   0.1249999708299759    0.6111109065202499    0.4792888471958699 Bi
   0.2499999416599517    0.7777771091149630    0.4792888471958699 Bi
   0.1249999708299759    0.2777776031270426    0.4792888471958699 Bi
   0.2499999416599517    0.4444442548236462    0.4792888471958699 Bi
   0.3749999124899276    0.6111109065202499    0.4792888471958699 Bi
   0.4999998833199034    0.7777771091149630    0.4792888471958699 Bi
   0.1249999708299759    0.9444433117096761    0.4792888471958699 Bi
   0.2499999416599517    0.1111109514304389    0.4792888471958699 Bi
   0.3749999124899276    0.2777776031270426    0.4792888471958699 Bi
   0.4999998833199034    0.4444442548236462    0.4792888471958699 Bi
   0.6250027711522930    0.6111109065202499    0.4792888471958699 Bi
   0.7500021585817861    0.7777771091149630    0.4792888471958699 Bi
   0.3749999124899276    0.9444433117096761    0.4792888471958699 Bi
   0.4999998833199034    0.1111109514304389    0.4792888471958699 Bi
   0.6250027711522930    0.2777776031270426    0.4792888471958699 Bi
   0.7500021585817861    0.4444442548236462    0.4792888471958699 Bi
   0.8750015460112792    0.6111109065202499    0.4792888471958699 Bi
   0.0000000000000000    0.7777771091149630    0.4792888471958699 Bi
   0.6250027711522930    0.9444433117096761    0.4792888471958699 Bi
   0.7500021585817861    0.1111109514304389    0.4792888471958699 Bi
   0.8750015460112792    0.2777776031270426    0.4792888471958699 Bi
   0.0000000000000000    0.4444442548236462    0.4792888471958699 Bi
   0.8750015460112792    0.9444433117096761    0.4792888471958699 Bi
   0.0000000000000000    0.1111109514304389    0.4792888471958699 Bi
   0.1249999708299759    0.7222232052563603    0.5207097602624202 Bi
   0.2499999416599517    0.8888894078510735    0.5207097602624202 Bi
   0.1249999708299759    0.3888890036593720    0.5207097602624202 Bi
   0.2499999416599517    0.5555570026616473    0.5207097602624202 Bi
   0.3749999124899276    0.7222232052563603    0.5207097602624202 Bi
   0.4999998833199034    0.8888894078510735    0.5207097602624202 Bi
   0.1249999708299759    0.0555557002661647    0.5207097602624202 Bi
   0.2499999416599517    0.2222223519627684    0.5207097602624202 Bi
   0.3749999124899276    0.3888890036593720    0.5207097602624202 Bi
   0.4999998833199034    0.5555570026616473    0.5207097602624202 Bi
   0.6250027711522930    0.7222232052563603    0.5207097602624202 Bi
   0.7500021585817861    0.8888894078510735    0.5207097602624202 Bi
   0.3749999124899276    0.0555557002661647    0.5207097602624202 Bi
   0.4999998833199034    0.2222223519627684    0.5207097602624202 Bi
   0.6250027711522930    0.3888890036593720    0.5207097602624202 Bi
   0.7500021585817861    0.5555570026616473    0.5207097602624202 Bi
   0.8750015460112792    0.7222232052563603    0.5207097602624202 Bi
   0.0000000000000000    0.8888894078510735    0.5207097602624202 Bi
   0.6250027711522930    0.0555557002661647    0.5207097602624202 Bi
   0.7500021585817861    0.2222223519627684    0.5207097602624202 Bi
   0.8750015460112792    0.3888890036593720    0.5207097602624202 Bi
   0.0000000000000000    0.5555570026616473    0.5207097602624202 Bi
   0.8750015460112792    0.0555557002661647    0.5207097602624202 Bi
   0.0000000000000000    0.2222223519627684    0.5207097602624202 Bi
   0.1249999708299759    0.7222232052563603    0.9553412353832940 Bi
   0.2499999416599517    0.8888894078510735    0.9553412353832940 Bi
   0.1249999708299759    0.3888890036593720    0.9553412353832940 Bi
   0.2499999416599517    0.5555570026616473    0.9553412353832940 Bi
   0.3749999124899276    0.7222232052563603    0.9553412353832940 Bi
   0.4999998833199034    0.8888894078510735    0.9553412353832940 Bi
   0.1249999708299759    0.0555557002661647    0.9553412353832940 Bi
   0.2499999416599517    0.2222223519627684    0.9553412353832940 Bi
   0.3749999124899276    0.3888890036593720    0.9553412353832940 Bi
   0.4999998833199034    0.5555570026616473    0.9553412353832940 Bi
   0.6250027711522930    0.7222232052563603    0.9553412353832940 Bi
   0.7500021585817861    0.8888894078510735    0.9553412353832940 Bi
   0.3749999124899276    0.0555557002661647    0.9553412353832940 Bi
   0.4999998833199034    0.2222223519627684    0.9553412353832940 Bi
   0.6250027711522930    0.3888890036593720    0.9553412353832940 Bi
   0.7500021585817861    0.5555570026616473    0.9553412353832940 Bi
   0.8750015460112792    0.7222232052563603    0.9553412353832940 Bi
   0.0000000000000000    0.8888894078510735    0.9553412353832940 Bi
   0.6250027711522930    0.0555557002661647    0.9553412353832940 Bi
   0.7500021585817861    0.2222223519627684    0.9553412353832940 Bi
   0.8750015460112792    0.3888890036593720    0.9553412353832940 Bi
   0.0000000000000000    0.5555570026616473    0.9553412353832940 Bi
   0.8750015460112792    0.0555557002661647    0.9553412353832940 Bi
   0.0000000000000000    0.2222223519627684    0.9553412353832940 Bi
   0.0000000000000000    0.6666648103788525    0.7113271119371605 Bi
   0.1249999708299759    0.8333355039924709    0.7113271119371605 Bi
   0.0000000000000000    0.3333333033932073    0.7113271119371605 Bi
   0.1249999708299759    0.4999986077841394    0.7113271119371605 Bi
   0.2499999416599517    0.6666648103788525    0.7113271119371605 Bi
   0.3749999124899276    0.8333355039924709    0.7113271119371605 Bi
   0.0000000000000000    0.0000000000000000    0.7113271119371605 Bi
   0.1249999708299759    0.1666666516966037    0.7113271119371605 Bi
   0.2499999416599517    0.3333333033932073    0.7113271119371605 Bi
   0.3749999124899276    0.4999986077841394    0.7113271119371605 Bi
   0.4999998833199034    0.6666648103788525    0.7113271119371605 Bi
   0.6250027711522930    0.8333355039924709    0.7113271119371605 Bi
   0.2499999416599517    0.0000000000000000    0.7113271119371605 Bi
   0.3749999124899276    0.1666666516966037    0.7113271119371605 Bi
   0.4999998833199034    0.3333333033932073    0.7113271119371605 Bi
   0.6250027711522930    0.4999986077841394    0.7113271119371605 Bi
   0.7500021585817861    0.6666648103788525    0.7113271119371605 Bi
   0.8750015460112792    0.8333355039924709    0.7113271119371605 Bi
   0.4999998833199034    0.0000000000000000    0.7113271119371605 Bi
   0.6250027711522930    0.1666666516966037    0.7113271119371605 Bi
   0.7500021585817861    0.3333333033932073    0.7113271119371605 Bi
   0.8750015460112792    0.4999986077841394    0.7113271119371605 Bi
   0.7500021585817861    0.0000000000000000    0.7113271119371605 Bi
   0.8750015460112792    0.1666666516966037    0.7113271119371605 Bi
   0.1249999708299759    0.7222232052563603    0.8126225166599609 Bi
   0.2499999416599517    0.8888894078510735    0.8126225166599609 Bi
   0.1249999708299759    0.3888890036593720    0.8126225166599609 Bi
   0.2499999416599517    0.5555570026616473    0.8126225166599609 Bi
   0.3749999124899276    0.7222232052563603    0.8126225166599609 Bi
   0.4999998833199034    0.8888894078510735    0.8126225166599609 Bi
   0.1249999708299759    0.0555557002661647    0.8126225166599609 Bi
   0.2499999416599517    0.2222223519627684    0.8126225166599609 Bi
   0.3749999124899276    0.3888890036593720    0.8126225166599609 Bi
   0.4999998833199034    0.5555570026616473    0.8126225166599609 Bi
   0.6250027711522930    0.7222232052563603    0.8126225166599609 Bi
   0.7500021585817861    0.8888894078510735    0.8126225166599609 Bi
   0.3749999124899276    0.0555557002661647    0.8126225166599609 Bi
   0.4999998833199034    0.2222223519627684    0.8126225166599609 Bi
   0.6250027711522930    0.3888890036593720    0.8126225166599609 Bi
   0.7500021585817861    0.5555570026616473    0.8126225166599609 Bi
   0.8750015460112792    0.7222232052563603    0.8126225166599609 Bi
   0.0000000000000000    0.8888894078510735    0.8126225166599609 Bi
   0.6250027711522930    0.0555557002661647    0.8126225166599609 Bi
   0.7500021585817861    0.2222223519627684    0.8126225166599609 Bi
   0.8750015460112792    0.3888890036593720    0.8126225166599609 Bi
   0.0000000000000000    0.5555570026616473    0.8126225166599609 Bi
   0.8750015460112792    0.0555557002661647    0.8126225166599609 Bi
   0.0000000000000000    0.2222223519627684    0.8126225166599609 Bi
   0.0000000000000000    0.6666648103788525    0.8540434297265111 Bi
   0.1249999708299759    0.8333355039924709    0.8540434297265111 Bi
   0.0000000000000000    0.3333333033932073    0.8540434297265111 Bi
   0.1249999708299759    0.4999986077841394    0.8540434297265111 Bi
   0.2499999416599517    0.6666648103788525    0.8540434297265111 Bi
   0.3749999124899276    0.8333355039924709    0.8540434297265111 Bi
   0.0000000000000000    0.0000000000000000    0.8540434297265111 Bi
   0.1249999708299759    0.1666666516966037    0.8540434297265111 Bi
   0.2499999416599517    0.3333333033932073    0.8540434297265111 Bi
   0.3749999124899276    0.4999986077841394    0.8540434297265111 Bi
   0.4999998833199034    0.6666648103788525    0.8540434297265111 Bi
   0.6250027711522930    0.8333355039924709    0.8540434297265111 Bi
   0.2499999416599517    0.0000000000000000    0.8540434297265111 Bi
   0.3749999124899276    0.1666666516966037    0.8540434297265111 Bi
   0.4999998833199034    0.3333333033932073    0.8540434297265111 Bi
   0.6250027711522930    0.4999986077841394    0.8540434297265111 Bi
   0.7500021585817861    0.6666648103788525    0.8540434297265111 Bi
   0.8750015460112792    0.8333355039924709    0.8540434297265111 Bi
   0.4999998833199034    0.0000000000000000    0.8540434297265111 Bi
   0.6250027711522930    0.1666666516966037    0.8540434297265111 Bi
   0.7500021585817861    0.3333333033932073    0.8540434297265111 Bi
   0.8750015460112792    0.4999986077841394    0.8540434297265111 Bi
   0.7500021585817861    0.0000000000000000    0.8540434297265111 Bi
   0.8750015460112792    0.1666666516966037    0.8540434297265111 Bi
   0.0000000000000000    0.6666648103788525    0.0000000000000000 Se
   0.1249999708299759    0.8333355039924709    0.0000000000000000 Se
   0.0000000000000000    0.3333333033932073    0.0000000000000000 Se
   0.1249999708299759    0.4999986077841394    0.0000000000000000 Se
   0.2499999416599517    0.6666648103788525    0.0000000000000000 Se
   0.3749999124899276    0.8333355039924709    0.0000000000000000 Se
   0.0000000000000000    0.0000000000000000    0.0000000000000000 Se
   0.1249999708299759    0.1666666516966037    0.0000000000000000 Se
   0.2499999416599517    0.3333333033932073    0.0000000000000000 Se
   0.3749999124899276    0.4999986077841394    0.0000000000000000 Se
   0.4999998833199034    0.6666648103788525    0.0000000000000000 Se
   0.6250027711522930    0.8333355039924709    0.0000000000000000 Se
   0.2499999416599517    0.0000000000000000    0.0000000000000000 Se
   0.3749999124899276    0.1666666516966037    0.0000000000000000 Se
   0.4999998833199034    0.3333333033932073    0.0000000000000000 Se
   0.6250027711522930    0.4999986077841394    0.0000000000000000 Se
   0.7500021585817861    0.6666648103788525    0.0000000000000000 Se
   0.8750015460112792    0.8333355039924709    0.0000000000000000 Se
   0.4999998833199034    0.0000000000000000    0.0000000000000000 Se
   0.6250027711522930    0.1666666516966037    0.0000000000000000 Se
   0.7500021585817861    0.3333333033932073    0.0000000000000000 Se
   0.8750015460112792    0.4999986077841394    0.0000000000000000 Se
   0.7500021585817861    0.0000000000000000    0.0000000000000000 Se
   0.8750015460112792    0.1666666516966037    0.0000000000000000 Se
   0.1249999708299759    0.7222232052563603    0.0807121976905992 Se
   0.2499999416599517    0.8888894078510735    0.0807121976905992 Se
   0.1249999708299759    0.3888890036593720    0.0807121976905992 Se
   0.2499999416599517    0.5555570026616473    0.0807121976905992 Se
   0.3749999124899276    0.7222232052563603    0.0807121976905992 Se
   0.4999998833199034    0.8888894078510735    0.0807121976905992 Se
   0.1249999708299759    0.0555557002661647    0.0807121976905992 Se
   0.2499999416599517    0.2222223519627684    0.0807121976905992 Se
   0.3749999124899276    0.3888890036593720    0.0807121976905992 Se
   0.4999998833199034    0.5555570026616473    0.0807121976905992 Se
   0.6250027711522930    0.7222232052563603    0.0807121976905992 Se
   0.7500021585817861    0.8888894078510735    0.0807121976905992 Se
   0.3749999124899276    0.0555557002661647    0.0807121976905992 Se
   0.4999998833199034    0.2222223519627684    0.0807121976905992 Se
   0.6250027711522930    0.3888890036593720    0.0807121976905992 Se
   0.7500021585817861    0.5555570026616473    0.0807121976905992 Se
   0.8750015460112792    0.7222232052563603    0.0807121976905992 Se
   0.0000000000000000    0.8888894078510735    0.0807121976905992 Se
   0.6250027711522930    0.0555557002661647    0.0807121976905992 Se
   0.7500021585817861    0.2222223519627684    0.0807121976905992 Se
   0.8750015460112792    0.3888890036593720    0.0807121976905992 Se
   0.0000000000000000    0.5555570026616473    0.0807121976905992 Se
   0.8750015460112792    0.0555557002661647    0.0807121976905992 Se
   0.0000000000000000    0.2222223519627684    0.0807121976905992 Se
   0.1249999708299759    0.7222232052563603    0.2526214717734917 Se
   0.2499999416599517    0.8888894078510735    0.2526214717734917 Se
   0.1249999708299759    0.3888890036593720    0.2526214717734917 Se
   0.2499999416599517    0.5555570026616473    0.2526214717734917 Se
   0.3749999124899276    0.7222232052563603    0.2526214717734917 Se
   0.4999998833199034    0.8888894078510735    0.2526214717734917 Se
   0.1249999708299759    0.0555557002661647    0.2526214717734917 Se
   0.2499999416599517    0.2222223519627684    0.2526214717734917 Se
   0.3749999124899276    0.3888890036593720    0.2526214717734917 Se
   0.4999998833199034    0.5555570026616473    0.2526214717734917 Se
   0.6250027711522930    0.7222232052563603    0.2526214717734917 Se
   0.7500021585817861    0.8888894078510735    0.2526214717734917 Se
   0.3749999124899276    0.0555557002661647    0.2526214717734917 Se
   0.4999998833199034    0.2222223519627684    0.2526214717734917 Se
   0.6250027711522930    0.3888890036593720    0.2526214717734917 Se
   0.7500021585817861    0.5555570026616473    0.2526214717734917 Se
   0.8750015460112792    0.7222232052563603    0.2526214717734917 Se
   0.0000000000000000    0.8888894078510735    0.2526214717734917 Se
   0.6250027711522930    0.0555557002661647    0.2526214717734917 Se
   0.7500021585817861    0.2222223519627684    0.2526214717734917 Se
   0.8750015460112792    0.3888890036593720    0.2526214717734917 Se
   0.0000000000000000    0.5555570026616473    0.2526214717734917 Se
   0.8750015460112792    0.0555557002661647    0.2526214717734917 Se
   0.0000000000000000    0.2222223519627684    0.2526214717734917 Se
   0.1249999708299759    0.6111109065202499    0.3333336694640909 Se
   0.2499999416599517    0.7777771091149630    0.3333336694640909 Se
   0.1249999708299759    0.2777776031270426    0.3333336694640909 Se
   0.2499999416599517    0.4444442548236462    0.3333336694640909 Se
   0.3749999124899276    0.6111109065202499    0.3333336694640909 Se
   0.4999998833199034    0.7777771091149630    0.3333336694640909 Se
   0.1249999708299759    0.9444433117096761    0.3333336694640909 Se
   0.2499999416599517    0.1111109514304389    0.3333336694640909 Se
   0.3749999124899276    0.2777776031270426    0.3333336694640909 Se
   0.4999998833199034    0.4444442548236462    0.3333336694640909 Se
   0.6250027711522930    0.6111109065202499    0.3333336694640909 Se
   0.7500021585817861    0.7777771091149630    0.3333336694640909 Se
   0.3749999124899276    0.9444433117096761    0.3333336694640909 Se
   0.4999998833199034    0.1111109514304389    0.3333336694640909 Se
   0.6250027711522930    0.2777776031270426    0.3333336694640909 Se
   0.7500021585817861    0.4444442548236462    0.3333336694640909 Se
   0.8750015460112792    0.6111109065202499    0.3333336694640909 Se
   0.0000000000000000    0.7777771091149630    0.3333336694640909 Se
   0.6250027711522930    0.9444433117096761    0.3333336694640909 Se
   0.7500021585817861    0.1111109514304389    0.3333336694640909 Se
   0.8750015460112792    0.2777776031270426    0.3333336694640909 Se
   0.0000000000000000    0.4444442548236462    0.3333336694640909 Se
   0.8750015460112792    0.9444433117096761    0.3333336694640909 Se
   0.0000000000000000    0.1111109514304389    0.3333336694640909 Se
   0.0000000000000000    0.6666648103788525    0.4140458671546902 Se
   0.1249999708299759    0.8333355039924709    0.4140458671546902 Se
   0.0000000000000000    0.3333333033932073    0.4140458671546902 Se
   0.1249999708299759    0.4999986077841394    0.4140458671546902 Se
   0.2499999416599517    0.6666648103788525    0.4140458671546902 Se
   0.3749999124899276    0.8333355039924709    0.4140458671546902 Se
   0.0000000000000000    0.0000000000000000    0.4140458671546902 Se
   0.1249999708299759    0.1666666516966037    0.4140458671546902 Se
   0.2499999416599517    0.3333333033932073    0.4140458671546902 Se
   0.3749999124899276    0.4999986077841394    0.4140458671546902 Se
   0.4999998833199034    0.6666648103788525    0.4140458671546902 Se
   0.6250027711522930    0.8333355039924709    0.4140458671546902 Se
   0.2499999416599517    0.0000000000000000    0.4140458671546902 Se
   0.3749999124899276    0.1666666516966037    0.4140458671546902 Se
   0.4999998833199034    0.3333333033932073    0.4140458671546902 Se
   0.6250027711522930    0.4999986077841394    0.4140458671546902 Se
   0.7500021585817861    0.6666648103788525    0.4140458671546902 Se
   0.8750015460112792    0.8333355039924709    0.4140458671546902 Se
   0.4999998833199034    0.0000000000000000    0.4140458671546902 Se
   0.6250027711522930    0.1666666516966037    0.4140458671546902 Se
   0.7500021585817861    0.3333333033932073    0.4140458671546902 Se
   0.8750015460112792    0.4999986077841394    0.4140458671546902 Se
   0.7500021585817861    0.0000000000000000    0.4140458671546902 Se
   0.8750015460112792    0.1666666516966037    0.4140458671546902 Se
   0.0000000000000000    0.6666648103788525    0.5859551412375826 Se
   0.1249999708299759    0.8333355039924709    0.5859551412375826 Se
   0.0000000000000000    0.3333333033932073    0.5859551412375826 Se
   0.1249999708299759    0.4999986077841394    0.5859551412375826 Se
   0.2499999416599517    0.6666648103788525    0.5859551412375826 Se
   0.3749999124899276    0.8333355039924709    0.5859551412375826 Se
   0.0000000000000000    0.0000000000000000    0.5859551412375826 Se
   0.1249999708299759    0.1666666516966037    0.5859551412375826 Se
   0.2499999416599517    0.3333333033932073    0.5859551412375826 Se
   0.3749999124899276    0.4999986077841394    0.5859551412375826 Se
   0.4999998833199034    0.6666648103788525    0.5859551412375826 Se
   0.6250027711522930    0.8333355039924709    0.5859551412375826 Se
   0.2499999416599517    0.0000000000000000    0.5859551412375826 Se
   0.3749999124899276    0.1666666516966037    0.5859551412375826 Se
   0.4999998833199034    0.3333333033932073    0.5859551412375826 Se
   0.6250027711522930    0.4999986077841394    0.5859551412375826 Se
   0.7500021585817861    0.6666648103788525    0.5859551412375826 Se
   0.8750015460112792    0.8333355039924709    0.5859551412375826 Se
   0.4999998833199034    0.0000000000000000    0.5859551412375826 Se
   0.6250027711522930    0.1666666516966037    0.5859551412375826 Se
   0.7500021585817861    0.3333333033932073    0.5859551412375826 Se
   0.8750015460112792    0.4999986077841394    0.5859551412375826 Se
   0.7500021585817861    0.0000000000000000    0.5859551412375826 Se