Bi288 Se216                             
    1.000000000000000     
    17.7746670000000009    0.0000000000000000    0.0000000000000000
     0.0000000000000000   21.9862549999999999    0.0000000000000000
     0.0000000000000000    0.0000000000000000   41.6504580000000004
  Bi              Se            
   288   216
Direct
  0.4893138082418105  0.4193574576479691  0.3686802195548466
  0.9656608475421820  0.9994562511896632  0.1631845200837887
  0.4360064804589570  0.9987649101677363  0.3687882615840650
  0.9632923080921856  0.6427015423954643  0.2713679643090572
  0.1134924215457858  0.3886510003636374  0.3101190387870432
  0.3023449046893560  0.7902346261334614  0.4164900179489024
  0.4900373098410213  0.2676317544756941  0.2798960818149965
  0.9524060281973235  0.4930216628525415  0.3414440244570685
  0.7705798370231065  0.5857477774182129  0.2726860770654653
  0.2638057860662002  0.6441160625126940  0.3265270216236260
  0.8427668433957152  0.6071566076168935  0.1193184958494342
  0.8826606990724528  0.7838488182730501  0.4065885662049595
  0.9348642087078218  0.2672724390761445  0.3318594959988204
  0.1510711846247261  0.4614428423576484  0.4221154062699597
  0.3837894684609253  0.5579849774324899  0.3446156582479816
  0.3645789819859928  0.2568022612309377  0.3488485048591770
  0.7943664992429973  0.8698070680977708  0.3067169153338014
  0.9960883655373109  0.9532182720522400  0.3038285917528185
  0.4243961363664397  0.7104893489136757  0.3514054995505660
  0.5316414647880592  0.4049621001848678  0.4542999263057297
  0.6023122683536073  0.0224351077525498  0.6266725806472522
  0.7822256248176132  0.7400214361199744  0.3237059241941580
  0.5220829172214607  0.1874753112797052  0.2033286164584283
  0.5667222907748410  0.0916272462045029  0.4074961192503608
  0.0067662027086044  0.8443229645066879  0.9328925026466663
  0.9862592643789085  0.8071588362820350  0.0896297466885017
  0.9657114814021526  0.3964886243700860  0.9603447818028812
  0.4583354501099777  0.9749045483189391  0.0613472245611320
  0.3169229555749169  0.7973481613853721  0.0586305677599057
  0.1405567823014664  0.9725985621471267  0.2055005013390243
  0.2498212765392438  0.9729578775466763  0.0921408835408215
  0.1014860081485622  0.4925531883442602  0.0091801631569126
  0.4655800302756745  0.4056620829695632  0.0694693441306242
  0.1899579890863805  0.3725782312631267  0.2478916318279119
  0.8904526875243306  0.3939106500857008  0.8866793253509968
  0.8977945972208659  0.6371389761466872  0.0448568896889441
  0.0421138691374665  0.8854304655340357  0.7459485799651944
  0.1864462495978145  0.3902638261950457  0.9485609978166423
  0.6729577549891630  0.9323188510276097  0.2148941555456574
  0.5566917231135733  0.3522100512342803  0.1818150475080031
  0.4241367784836712  0.4517986351017953  0.9829207640405784
  0.2850832592250541  0.5274613616552699  0.9440016241838194
  0.5468935086097559  0.0302118755558851  0.9361529709949394
  0.0106412120125796  0.1044625380720845  0.9991100217913598
  0.8426486977224386  0.8883550199886230  0.0629628130379771
  0.0901457113092476  0.7131955851508138  0.0257303293039399
  0.8585421037704961  0.7282822836358420  0.1048151739411836
  0.8284599649602455  0.1526863033290553  0.0525425194604097
  0.0410260850456439  0.2701892614271983  0.0830965652286437
  0.3031499830629727  0.4780486717724344  0.3904134739646778
  0.0517431353285005  0.6145157508634398  0.1644447703312153
  0.1436347583895667  0.5180918714897089  0.1368690831683068
  0.4739852510317064  0.4246634999912473  0.2467295797803715
  0.1016373471300440  0.0203057319220576  0.0450100692770263
  0.0282992080808029  0.4494985617150320  0.1621028993246583
  0.7248799654024438  0.4223329530199678  0.4406962343607361
  0.2761626982941507  0.2145795179761194  0.2132135017578918
  0.2328701854161324  0.6145885236025848  0.1669371798984756
  0.2253189890983620  0.6561826923230001  0.9650866264183691
  0.7490998284243489  0.8197667133397673  0.0176530831905879
  0.5926412010981679  0.0995130821506436  0.1135019931833625
  0.7403176667107161  0.8176790453854039  0.1501325627679790
  0.8268565593943364  0.3620443772711610  0.1681563741748064
  0.2493858253434524  0.2772941549163335  0.8891522873529993
  0.3197899572464564  0.4710670371102310  0.1547541205909440
  0.8459961584653044  0.7058910214586334  0.9630410306652593
  0.1953105506842974  0.7094750788617716  0.1998551852659105
  0.8705929624448103  0.9840420753784613  0.0193382267249049
  0.1663856768737233  0.7542485066237958  0.1238903543389611
  0.9333789488151893  0.2503254874465881  0.0315453914096224
  0.6705160777414250  0.3237572747154971  0.1108604856157882
  0.9593597449673723  0.7681253583204608  0.2757928856388574
  0.3881006603386723  0.3013359937833897  0.9389308516127244
  0.2748619706912123  0.9144986265282569  0.2222669436192035
  0.1667412390904417  0.4876637699326238  0.2722635126845390
  0.3745155957070807  0.1621317500411052  0.1298141787540459
  0.6548364591021567  0.1773958320778135  0.2489144297044703
  0.0216312913203964  0.4306672509711191  0.2384096232507247
  0.0985728734046063  0.5986149073591633  0.3032883816067553
  0.5570467227318545  0.6493647963238871  0.2838000004705847
  0.3082825686692203  0.3512944792098551  0.0440249660640006
  0.5319542695230268  0.5955902903882446  0.0579451011078902
  0.3124013518790534  0.3600722360401960  0.1210490890640372
  0.6369289506239397  0.4725543299666057  0.0999559236539511
  0.9602317725558507  0.1730262839214802  0.1389093968666586
  0.2315250125361032  0.1279340205960509  0.0122125187674982
  0.1743177523382045  0.1677302478298373  0.0923235946168930
  0.1363457329467863  0.5202386672946346  0.2030409845673233
  0.8876003134123422  0.9254327305855412  0.2303057507795003
  0.3044124539717146  0.4581225861339249  0.2307835366420221
  0.1908744619519425  0.7765215130998868  0.4654234534467818
  0.7856462233582207  0.0285681667932991  0.2662467721243331
  0.9775710566054485  0.5289441062154481  0.0982875146294901
  0.9232690547732929  0.3891026461759850  0.0704383610859693
  0.5549656710868334  0.5811903846289397  0.2017365571346161
  0.0999022935282028  0.8881139602901911  0.1176824994337409
  0.4961398151650300  0.5728442611076758  0.5520923683480277
  0.4670844185154053  0.8347624459008571  0.5331057824142036
  0.1670883623305031  0.3064209889314924  0.4440215279265374
  0.0995748612336840  0.5864027320705603  0.4531234686542973
  0.1176894059393661  0.5700015759846337  0.8132707688352454
  0.2497003178737458  0.2281971167895591  0.5248417676463504
  0.2970075332494275  0.9243729775716716  0.5178718562950735
  0.0482802856447293  0.1864046423549652  0.2720642351639952
  0.2669141424702914  0.0445053511841849  0.7256606878128480
  0.5096911238899722  0.2162760324575501  0.8160534513209896
  0.7830357665772283  0.4912660205205484  0.6214433464333098
  0.4312536488025316  0.3466411173708295  0.7139225215722718
  0.4557114909663298  0.7133001959633418  0.6222236499776272
  0.5877634725871346  0.2796938359898036  0.5328993020917068
  0.5831276614071044  0.2527929381333962  0.6685736805103062
  0.7960936764666258  0.7188263758425464  0.6886863044819336
  0.0169126656493788  0.6737664054201105  0.6757884871278037
  0.8030023853611468  0.5323189419935304  0.7100834281342117
  0.7721888685734584  0.6640648896321792  0.4826285463655680
  0.4481135989776917  0.8772480806758551  0.6601680106374843
  0.2357152457483451  0.1670648320962371  0.7771415142661837
  0.9885152841400640  0.0650460935707358  0.4824148632411180
  0.4782120531428262  0.6943565423033604  0.4413156753282266
  0.6781899205200332  0.4716173809500503  0.5230338643575081
  0.3603864983799667  0.6972310654997855  0.1584760484506589
  0.1957915723540680  0.0068521446694731  0.3495855915918114
  0.0756278584572101  0.3012832335475082  0.2208568750912647
  0.1941741018270520  0.2367742937576196  0.3101574537307599
  0.3140722692582685  0.9209026275734544  0.3869609308978070
  0.3160661181444340  0.0629388679427194  0.5452689139696858
  0.0636287588397551  0.2238621356843140  0.3910353158661550
  0.9507857446780861  0.1163622454119633  0.3898324479409112
  0.9264196060606906  0.2620282535611480  0.2366014798684830
  0.4591022717893978  0.5480651434271095  0.4319736412022195
  0.9040113100290412  0.0917918945268283  0.5482100580982774
  0.4977049640367355  0.9911647072227652  0.2335522937106731
  0.1464460628151301  0.2661913090701447  0.1536444089042206
  0.6274210369173190  0.6164578733394990  0.4486745379846724
  0.1019169585568065  0.1264926655312593  0.3329951377725564
  0.6294576432852423  0.7823069458623095  0.3383228102797844
  0.1256434227431669  0.9753275398652477  0.4112199678572566
  0.8896369197802727  0.7769717944233818  0.1800803727056248
  0.1173209039584293  0.5036601276570281  0.5916357510402435
  0.6630447704027276  0.8743735574794371  0.4419855359093532
  0.8932262978541345  0.5694239423676279  0.5112908962489655
  0.0477270825945695  0.3765134171326565  0.5243951939255993
  0.1367373014639313  0.1063978381038524  0.3970208442845902
  0.9546170400829439  0.3839116757264947  0.4400119681757175
  0.7169360753706400  0.5229994830861386  0.3547067837765425
  0.2549037908839580  0.6054782863202490  0.2463742415509600
  0.4313481653411557  0.2698367684719400  0.5702002124442416
  0.3572854557556582  0.4334780980207853  0.4945371789188968
  0.3453819978737158  0.7121403804331408  0.4736226429971069
  0.9253450430323085  0.2344787686670600  0.5260014187599111
  0.2358508319733943  0.8346305453111498  0.1632049280226369
  0.7681662896975823  0.1598171221065172  0.3580296764083570
  0.4420690412934292  0.5104916685447307  0.6587154455780535
  0.3240201349482419  0.4607515013357215  0.5869923447180341
  0.7254706937688340  0.9469689130777397  0.3705193349854667
  0.3743659445209317  0.9298673193774931  0.5949082240584218
  0.4622353825250300  0.0235455742690149  0.4862251454713871
  0.0344898163211695  0.6625275655176353  0.5282967116472079
  0.9298964644457186  0.6433337555668288  0.3471102286558292
  0.4206655460830859  0.8128169167509398  0.2269638907692197
  0.2932645658003068  0.0732584971838079  0.4006894714098976
  0.0090475956595952  0.9630243986527063  0.5992371080289232
  0.4572068776309592  0.8191208552798130  0.4294190474448101
  0.8547051823811955  0.3608363498012750  0.5192019737213940
  0.2889229936065760  0.6945794088170061  0.5817150918244423
  0.0363086970912008  0.7055680924286563  0.2212988870374488
  0.3996620583665518  0.5562884629510592  0.2621579815520860
  0.3203632450610741  0.9277887480155229  0.3116436318659481
  0.1658489579579765  0.8151001614417765  0.5807907322411694
  0.1704735171691283  0.2470816425989781  0.6148287733114515
  0.3163367279960880  0.2431096155302512  0.4448930669621944
  0.9554890676714223  0.4569582223075273  0.5588894124525581
  0.9985715062903822  0.2862784043940181  0.4702709391575013
  0.1332716950477888  0.8248835465612459  0.2985537397932063
  0.0628658753494520  0.0864012538742926  0.5383902381097485
  0.5997974533081276  0.4362625649525143  0.6783142696774220
  0.2726526466009176  0.4540568641635403  0.6958987101654444
  0.3576106376563928  0.1780366870119536  0.6315392738298371
  0.1658804634708488  0.0535962127247203  0.4625111205259742
  0.2910124842282542  0.4370148531434737  0.3011611540982315
  0.7091665908565261  0.8425127426203360  0.5307576689792910
  0.3195874218065526  0.0645448713298364  0.2598698914667423
  0.7063592246200727  0.3411426820984289  0.3476000191882633
  0.3279819531921504  0.6364157970513844  0.4048983086812612
  0.4003028579944683  0.8335207610391109  0.3560272974669303
  0.0894565282151305  0.1849241719428818  0.4581534253476889
  0.6540994551402832  0.2317798097038377  0.4537741217635585
  0.7276704536855760  0.0950975962027201  0.4673273940949230
  0.8844778920471512  0.6212062945690420  0.4372148800860742
  0.0115918346037063  0.4067968828706867  0.6763575084816580
  0.0914081822179824  0.8569899694149825  0.3725409213987518
  0.7428606116784096  0.5099913559630807  0.1953966508603600
  0.6287487692455755  0.6606991504464972  0.7830478118631987
  0.3497798299118600  0.5503574847103323  0.0424377086081478
  0.7119683311085367  0.9464640521998859  0.9183644511183999
  0.0975556954175261  0.9529726640576115  0.9949014246133885
  0.1912204599951153  0.4080708606354264  0.1764163073548914
  0.6446252973403119  0.5473101262584308  0.9813529541499904
  0.4775813802868996  0.8845026131098734  0.8762616728008155
  0.6469994627747440  0.0928752986809229  0.0267288777472743
  0.7900626211450259  0.0192396567764703  0.1534400894223040
  0.4200703169291415  0.5554106417850591  0.1087426217498049
  0.3723889735880874  0.9359574879851067  0.9461864741079182
  0.7047220631475142  0.6851144044313173  0.1071647279364853
  0.6339134229631398  0.3751107225855392  0.9669161381130564
  0.5480997196740702  0.2550156904848038  0.0168852885123130
  0.1260169881101021  0.2306404615065176  0.9461288516923361
  0.6313479740576824  0.7367375662658304  0.8936444348343073
  0.5441260868628390  0.7292465224295839  0.0171473984751884
  0.0102876751502592  0.6815667333977515  0.0898852060642383
  0.4129090013331904  0.1647583910948001  0.0010526174766170
  0.5294630836121996  0.1857797064575095  0.7502078368501941
  0.6235447336369191  0.8204716992502838  0.7377469894808826
  0.9573906504127478  0.5305451064767510  0.8278660465150196
  0.5757294918661486  0.9539596443323362  0.9982915433967108
  0.0849731812134635  0.1659454964021805  0.7400638907740245
  0.0608838410306092  0.8081276233719663  0.8278780511849320
  0.9609518985644030  0.1095047792359338  0.6894978201680289
  0.0197241951143141  0.1768932453480616  0.8845520978424801
  0.2756754880414931  0.2447028836880136  0.7164050873102070
  0.0444814521701034  0.4041138429441489  0.8111147301189305
  0.1058709004224951  0.8530375000199015  0.6662783876230094
  0.9158371293256877  0.0177623246887677  0.7605246501731173
  0.8297089335063177  0.2823391250579022  0.6280483158192425
  0.8629641275417441  0.2585497166297728  0.9327532484756844
  0.4392768652149712  0.7121722185065167  0.7481646420310639
  0.3025547539090354  0.7984352041764282  0.6927126707706321
  0.2983583321138994  0.1810935968858729  0.9449523940409037
  0.4588862339868314  0.0865654473670006  0.6810369288136044
  0.3731422929048378  0.2627195945830678  0.7888796805067528
  0.3042464874306816  0.0545977475472768  0.9027151634202895
  0.5764664958280221  0.5817316318763730  0.6147471415560446
  0.4544568964358078  0.3859129260531162  0.5452617111677398
  0.6651713925217280  0.3791264132977616  0.8846169230600083
  0.5890124411332138  0.8310783259813945  0.6025744062646297
  0.7634404627664750  0.4620295725670402  0.8092275960086681
  0.6477758486277096  0.1032813455497532  0.5505989874108934
  0.8759095177423006  0.6386808485574278  0.5908482446939729
  0.7954916961313572  0.7492089944376588  0.7913910574524792
  0.6297051866006811  0.3142058527020666  0.5918926509763693
  0.8260126617280648  0.7951013030641221  0.8884752239699267
  0.8207748702127589  0.1466975617266328  0.8053500876268842
  0.2655172105333961  0.3199908306348647  0.8238084680845503
  0.8169548267767794  0.4343904862378807  0.9873672937762166
  0.4625718163946502  0.5605911511533037  0.8948569064954839
  0.2313545452075161  0.8708804660002372  0.9840323964744897
  0.3545821702313745  0.7000328159570586  0.0115813372328333
  0.1349651163647678  0.1356374698646974  0.8341324842094195
  0.1383362062422862  0.4809413881536457  0.8773781071026860
  0.4927310311917523  0.5129750382682303  0.8237268363291435
  0.7467931748032157  0.3017417018041471  0.7239440200153382
  0.2895142845714105  0.5084995148105023  0.8502211428263280
  0.5738841689692435  0.0144640822186375  0.8497793709735433
  0.3896388044850596  0.6548864279068880  0.8224303319785804
  0.6480233919431484  0.5786478870548919  0.8776157995669607
  0.0572156991745629  0.5118516091076017  0.7468753404824469
  0.8967200341924837  0.3163585612920414  0.7985482416543874
  0.6848510860991084  0.2157156823660955  0.9034426464169982
  0.0035378440563747  0.6047687521135359  0.8903719618161219
  0.7106574767336014  0.9851700528352794  0.7583758142587556
  0.3541861009266754  0.5258694579863672  0.7790910726599947
  0.0037518002447001  0.1879205894773790  0.6260099228680787
  0.1018578857201646  0.2584178160400654  0.8313017830440188
  0.3199306068575041  0.1965596232737212  0.8450999506415968
  0.1572862096375687  0.7197132936009325  0.7353316498944622
  0.0554539221466115  0.6074067639077256  0.9624215896977617
  0.9791125763425015  0.3001106827879525  0.5809371892141044
  0.5245274074614201  0.8320698545523086  0.1049887614681211
  0.3085250485986606  0.6694955552912489  0.0929708864185841
  0.2967999344235253  0.7892021628967711  0.8777142378602392
  0.2000701335220540  0.0341014420145669  0.7972949541155074
  0.8035030979764599  0.0324680578843441  0.6412102359114513
  0.5118250597887410  0.7823888151938547  0.8240173493410339
  0.5887986537244245  0.3685693629951956  0.7823203288664899
  0.9254575627211494  0.6315309269359446  0.7826444549541307
  0.1566060281185599  0.0762917559175023  0.6056620073661634
  0.4387885297654250  0.9888996557167218  0.7389306499342680
  0.9567155322797305  0.8598099130570418  0.0045461204772366
  0.4499898647890248  0.2204509135366592  0.8908569504805897
  0.0463138915626402  0.3029888446213320  0.8987344148772607
  0.1481642384636501  0.9157084733166272  0.8795773626306840
  0.8466206427383440  0.9509486722500071  0.8426942147911092
  0.3317530505634778  0.9396916391627386  0.8157461317712276
  0.9396631734366636  0.8150455818874107  0.5027435712711750
  0.1911771399149131  0.2988562626968516  0.7633961672162144
  0.1104532647503333  0.1567074519967164  0.2074411762771007
  0.7481265331159221  0.8981429534042960  0.6614092935064519
  0.2131994934138604  0.5929841166674379  0.6845158821542867
  0.1106451108197959  0.4982476551827517  0.9363402438455779
  0.8243980041932701  0.1987446247667037  0.2008482115610803
  0.2423179010892298  0.2557616110610894  0.0080898990354470
  0.7795251522855509  0.5095319780471925  0.8711356787481179
  0.8334502131601127  0.9005171640190639  0.9555597203757031
  0.9910731942263666  0.2974622099125099  0.1570568563735861
  0.4011208761323033  0.0597036648578850  0.9613891880852776
  0.3742005405783431  0.2559189821095060  0.1666397041780456
  0.8959155184173042  0.8703346704566073  0.1362902179851204
  0.7123115161594882  0.5608731455175047  0.1288297958212112
  0.2665703948208957  0.4599055182431044  0.9974200043610537
  0.9597423119094159  0.0063401429665930  0.0683721173006049
  0.1016474739020410  0.7956743883849242  0.8855268770393820
  0.7588046515864377  0.3735488376715352  0.0482402858571191
  0.4835955576551711  0.0879031012785063  0.0463452286647126
  0.5488963590710298  0.1892436888410529  0.9348012451627810
  0.1445630458224585  0.6274738467283285  0.8810251258221484
  0.6989779330324453  0.9070485173577794  0.8609797280020288
  0.7409027690926635  0.6770320820894682  0.0090821330224031
  0.0432241009072101  0.0551717425273210  0.2230652541683966
  0.2421913164392890  0.5079173328972999  0.0799549431125115
  0.4604952655371832  0.3446626085251907  0.0033239010240891
  0.6069199496114308  0.9393778067251546  0.0629827407900265
  0.8433913276687548  0.1170067389830578  0.8938989338364536
  0.1903574339817453  0.8631392658731585  0.0604723242178977
  0.6098060796300686  0.7627811102891329  0.2711974979962974
  0.9019690776766751  0.6014894305555885  0.9859171296507725
  0.9673205129525044  0.0385335292436082  0.9418936041471611
  0.3258885243813552  0.6189548879515883  0.9018196150448077
  0.5719657082745897  0.7794324226658915  0.1559817181362106
  0.6798495859303557  0.1906068132112537  0.0581895161873121
  0.4536776975906207  0.0211777312689208  0.1245273221245284
  0.6464649942527743  0.1193745819831520  0.8725930456755151
  0.7232371779454425  0.5267108927827877  0.0346406754998938
  0.9185938617021634  0.7689576965244882  0.0394804782218756
  0.0316317599648954  0.7446970846103653  0.1568170030687313
  0.6240454462522393  0.7793323601495601  0.0605933312906188
  0.4404442569866447  0.8789218536763101  0.0072875789265012
  0.5025247449080226  0.4203075967234966  0.1254740103938374
  0.8674761670640549  0.0844227450286539  0.3232809588792520
  0.7614713682118506  0.6901038853592851  0.8756494346352710
  0.2099983082664778  0.0733717497591115  0.1792311623560039
  0.6727045856892815  0.2269586157351497  0.1571365673818050
  0.6219019461799178  0.0524636869716986  0.1985217065320128
  0.6262620841223097  0.5387911674816834  0.2640595212662475
  0.3757746910251569  0.8333979570417966  0.1187888498128871
  0.5382013626471860  0.4958507030869939  0.0192724891524634
  0.8640161866323552  0.1536887478108468  0.9840323964744897
  0.4794649598780083  0.7126315964223977  0.2189123586588195
  0.6795345308016181  0.9464003760531270  0.3061406911779940
  0.3163654205167390  0.3119489881291742  0.2896582793879503
  0.7247843236669382  0.2699836784390968  0.9658165103490575
  0.3069947808304931  0.1014756719595979  0.0723619893927676
  0.4641009589659291  0.9113284640790340  0.1891338145669366
  0.1336722651400422  0.0145926625521255  0.1136225200692849
  0.8045439050981926  0.4669644739406493  0.3027601761305974
  0.0436678785599725  0.8654861867107400  0.2238505996740798
  0.9552190204182196  0.8578859837657689  0.3419122065836575
  0.1064250598900074  0.3694367230799429  0.0056097102221528
  0.7032593071926456  0.6404001045198484  0.2087261561445501
  0.5048055190007190  0.8938129754248720  0.2748685260555845
  0.0710049870413911  0.0317546121429046  0.8660961183187936
  0.1948261534238611  0.2955878570497816  0.0944529829659970
  0.7190064376452199  0.6361019646138004  0.3273745513194584
  0.9650588672069063  0.7095660447857099  0.9251494905530180
  0.0411694913890628  0.6937288774281924  0.4507729542853980
  0.8615688834001816  0.0541147184911637  0.2038729081922668
  0.8120658462968677  0.1923146984331794  0.4514596214044033
  0.5971757445582497  0.3424944357281419  0.3997290978168806
  0.8000318655758818  0.8328021302400046  0.2395190948440487
  0.7875309281462179  0.1542500075615436  0.1257626026585328
  0.3916962269954212  0.0861674714497767  0.1969349292629659
  0.8321731146918268  0.4676694598511659  0.4783860960184398
  0.2735083588345120  0.9245958440853173  0.4564583659560242
  0.8018603105194586  0.2946304407003382  0.3001911767692960
  0.9366982796358414  0.5317913396346938  0.2075931553981931
  0.6055528353920749  0.4979474676337574  0.4064565148359236
  0.5168884457863570  0.3479855937266265  0.6387204673715701
  0.3314740017351667  0.5634156430915596  0.4592578549796471
  0.1694698415447107  0.6522620610012950  0.3934098395748720
  0.7463262180945520  0.2028808453281385  0.5408247851680272
  0.3964670618020563  0.5634975124231048  0.1753983113462994
  0.6668985697453564  0.4337046031713925  0.1723536869630564
  0.2707038055902800  0.8074135408690566  0.2774999497004345
  0.4755053920278769  0.6810391310389150  0.1008889265995592
  0.8788575335898017  0.2825597174234531  0.0851697717225548
  0.5483720173210571  0.3839048532821963  0.3084143756594457
  0.5965006264252395  0.3162580439460925  0.2455723296007903
  0.5357113019332544  0.5171913088427260  0.3312880737109793
  0.8389017920842079  0.4395173257109946  0.1123060879666653
  0.6705892155391737  0.1412791764673003  0.3114419534114106
  0.8216525237856800  0.4493984991987006  0.3866127954703416
  0.7307647451285604  0.3989756327305400  0.5853092899962817
  0.8524322846667118  0.4021380630762295  0.6489196349293422
  0.8718306790220041  0.3836360489769604  0.2301912262285342
  0.9309147676296803  0.9705927635243015  0.3768409941614550
  0.8354530636213866  0.9846469987726394  0.4710968604474886
  0.3941891007015741  0.1914600735777867  0.3968047602261677
  0.1063952421724679  0.2165489302293651  0.5576553323855435
  0.8102824092288188  0.2923521991353226  0.3923246174147721
  0.6009901620097864  0.8033746538462339  0.4872359386780332
  0.2189588136869176  0.9666448424254170  0.2698433712301522
  0.5452338431994264  0.6617361619793840  0.3572421700620936
  0.0747096977963082  0.3705383204188237  0.6194529721617954
  0.2091212172920009  0.4154663902515452  0.4898793669927954
  0.4328092335006914  0.9749181932075288  0.5428007538356496
  0.1864698787324670  0.6929374738899341  0.5216701338554302
  0.7898150778295872  0.7904574926471142  0.4628808643592848
  0.5467567971878182  0.9534411385658927  0.4346170695169818
  0.5134352165359815  0.1402726385189297  0.2621819908919107
  0.2090306389424939  0.7203636999570904  0.6763094898020086
  0.0060689744567384  0.3795025573932449  0.3665697985842087
  0.5966525280051655  0.1879260474328177  0.3849081323427441
  0.6371033561416368  0.5716662523926885  0.5500251641890728
  0.7334539656917372  0.0789365901559833  0.4007518956934391
  0.6565242544346930  0.0042319621963784  0.5021793517852799
  0.2288369171698150  0.6756403034532283  0.0413906612983723
  0.8318805635008530  0.6792925852993150  0.3862838675147344
  0.3097728919478513  0.1429156534389335  0.4818626484251354
  0.3205871592418603  0.8036975828762110  0.5465053949706871
  0.3531919894758104  0.5263288359022482  0.5392449706075269
  0.9329569999820535  0.5948307249233693  0.6942396647835167
  0.9185544798110712  0.5360803829483487  0.6178323417235916
  0.2500907611940093  0.3303695877265156  0.5631966880172143
  0.1060492441293022  0.5369127211523761  0.5315739865333526
  0.7479183716915756  0.7873828444180262  0.6229655385782280
  0.6987022597947998  0.3436997342203085  0.6689026084659133
  0.2895142845714105  0.1761150318687754  0.5782889590313758
  0.5582197404879636  0.1589852387321073  0.4979489061080642
  0.2465205114672457  0.8760200407027057  0.6433782792976714
  0.5313494761955297  0.6944065735615297  0.5693334752765509
  0.0674803077886068  0.0189251420944601  0.7293869373537234
  0.6608337585171071  0.7460069939150600  0.4089726936496092
  0.5763539761391883  0.6216884139659058  0.7272933229209642
  0.4906072220649733  0.1108269689403656  0.5792853466341228
  0.1804708915221838  0.7746885497325522  0.3474799724891398
  0.7681944196197890  0.6464038554997202  0.7518452738262837
  0.0979101324373630  0.9799031258393001  0.6459496795929596
  0.7026066929973993  0.9364259624933879  0.5897702253358190
  0.4163566045991161  0.4249768775992067  0.8191794673662400
  0.6004500675033739  0.0268760186762123  0.3562385796573935
  0.6893743775903118  0.5544282098065381  0.6591332080910135
  0.5182881907154737  0.4995894025608294  0.4947100461656362
  0.4371856867979602  0.8193983013478174  0.6022238699031845
  0.6477364667366174  0.3590697915584045  0.4861026978382839
  0.9332833070796767  0.7859182930426272  0.6745664117306944
  0.0944034563347955  0.6302983386665915  0.6068264603476905
  0.1930927876173456  0.4433956578780709  0.7920753236374978
  0.3943033081857479  0.8614882343536934  0.7309307379044938
  0.9027342115607553  0.9427435459108437  0.7118481146113709
  0.0027091928079415  0.5076535317178852  0.4265187191939148
  0.2262883462176788  0.9640250238160135  0.5702194199160999
  0.3377998586415174  0.3725081875016940  0.6610875683527908
  0.1250622585503294  0.4880458268131633  0.6862925733013583
  0.2090233251627183  0.8601419386794191  0.7281264470128974
  0.3728092346258833  0.3787611851131558  0.4308500040983958
  0.3611116877745175  0.0431488673264298  0.7899408933270280
  0.4479217529082291  0.2181763106086052  0.6979106928428038
  0.2686283799297087  0.5231359319720426  0.6343939843350554
  0.4267078533735713  0.2808304552094043  0.0818761704853301
  0.9226895783757882  0.0784149005822030  0.6150352536339483
  0.0381052427029971  0.1484950483836371  0.0807482117003389
  0.9662290719708011  0.8600964557174464  0.4467321823928074
  0.5430864049379949  0.7968114624341425  0.6700358493056697
  0.1727745448058187  0.3202637284066796  0.6901268648714520
  0.7587033838664894  0.0963997734038813  0.7270436257867772
  0.6737678967487852  0.4659229141115659  0.7446280662748066
  0.9355505788097176  0.2786308991685971  0.6786792116427591
  0.1224518017693370  0.8601101006060361  0.5088659529266195
  0.3828651192171435  0.6585432580491783  0.6655869186360448
  0.4875022412515548  0.9132660382589037  0.8092636100184052
  0.0054693570349329  0.7741700439661088  0.7576003125823974
  0.7689595535038691  0.8376915486516481  0.7227843689017774
  0.1739689413028103  0.7011153104519181  0.8097053818711899
  0.8904470615398878  0.4418314988159651  0.7328202729487359
  0.8787675178387317  0.6883937259892576  0.5252115114796609
  0.4097134421702506  0.5782794750629421  0.9755402929782946
  0.7069499529864629  0.4709851677786858  0.9435718570009470
  0.4429438818741289  0.4567853870520437  0.7239368172133922
  0.5658783931085765  0.6372481352554118  0.9293655306263346
  0.7042326025010794  0.1976684978865180  0.6228815058888415
  0.9689464224561846  0.1194205197747422  0.7928556271818152
  0.9412215711270449  0.4765750238046422  0.0203527893978972
  0.5362193283283432  0.4598281972077558  0.5800152305648112
  0.8882529276075886  0.9045605993380832  0.7837560873880420
  0.3493010586358665  0.7790276243043692  0.7933934363939059
  0.5728377358630681  0.0409727350110316  0.7746301373204574
  0.8748687106205679  0.9117605522177357  0.5445870487186468
  0.3177994839509495  0.0375571010160698  0.6414839423854630
  0.2258624591954401  0.1318150817408394  0.6743623323421772
  0.0270919280794431  0.8165783577057582  0.6021998605633598
  0.3140520157142745  0.6229755817896248  0.7523086540849064
  0.5576886475566596  0.6237305989583035  0.8343029505221793
  0.2117237976947735  0.8636896097129778  0.8218637115587057
  0.6327657221370160  0.4689793691558677  0.8242622446072474
  0.4609318419298631  0.7616167464627353  0.8922711005963038
  0.2299885561850488  0.9734672867207266  0.9380593125770673
  0.9855374505750234  0.9084675857711986  0.8755029776623360