Bi54 Se81
1.0
  12.5739999999999998    0.0000000000000000    0.0000000000000000
   0.0000000000000000   10.8900000000000006    0.0000000000000000
   0.0000000000000000    0.0000000000000000   29.9280000000000008
Bi Se
54 81
direct
   0.1982845600000000    0.8464242400000000    0.9397196600000000 Bi
   0.8599284200000000    0.9159127600000000    0.6437035600000000 Bi
   0.2292699200000000    0.3984664800000000    0.7809278900000000 Bi
   0.2665770600000000    0.0841010100000000    0.4569971300000000 Bi
   0.2797200600000000    0.8241928400000000    0.1967064300000000 Bi
   0.7622339700000000    0.3522534400000000    0.3929083100000000 Bi
   0.4165563900000000    0.1917621700000000    0.6142091000000000 Bi
   0.6611714600000000    0.9606593200000000    0.7660882800000000 Bi
   0.7282766000000001    0.5963498600000000    0.7995616100000000 Bi
   0.7773580400000000    0.9695114800000000    0.4102880200000000 Bi
   0.3212136200000000    0.4684371000000000    0.4204718000000000 Bi
   0.4552489300000000    0.4105950400000000    0.8324485400000000 Bi
   0.9614967400000000    0.3339265400000000    0.2537630300000000 Bi
   0.6881795800000000    0.6948457300000001    0.6252589500000000 Bi
   0.4263774500000000    0.5547603300000000    0.2791930600000000 Bi
   0.7579910900000000    0.2106868700000000    0.8153936100000000 Bi
   0.8219190400000000    0.9865803500000000    0.2640540600000000 Bi
   0.1210124100000000    0.0539880600000000    0.2569313000000000 Bi
   0.6144281900000000    0.5600027500000000    0.8951386700000000 Bi
   0.7716868099999999    0.3862516100000000    0.6510481800000000 Bi
   0.6646834700000001    0.6991992700000000    0.0384379200000000 Bi
   0.7595554300000000    0.6469853100000000    0.4631696100000000 Bi
   0.8360187700000000    0.6581037600000000    0.3324719300000000 Bi
   0.3447423300000000    0.9260881500000000    0.7036952000000000 Bi
   0.0994902200000000    0.8168971500000000    0.6644005600000000 Bi
   0.3471528600000000    0.8646170800000000    0.3526423400000000 Bi
   0.8387673000000000    0.2202268100000000    0.4913522500000000 Bi
   0.4070112900000000    0.0283774100000000    0.8320783200000000 Bi
   0.6017202200000000    0.2968898100000000    0.2352536100000000 Bi
   0.7154310500000000    0.4708484800000000    0.5491787000000000 Bi
   0.4725648200000000    0.9290174500000000    0.0856652600000000 Bi
   0.2527747700000000    0.9605629000000000    0.5975317400000000 Bi
   0.3004199100000000    0.4447658400000000    0.5716439500000000 Bi
   0.6566327300000000    0.9758034900000000    0.8717451899999999 Bi
   0.0048775300000000    0.4631414100000000    0.1215373600000000 Bi
   0.7104382100000000    0.0121992700000000    0.0149472100000000 Bi
   0.5254183200000000    0.4653746600000000    0.6298305900000000 Bi
   0.4955328500000000    0.5690367300000000    0.1417348300000000 Bi
   0.4466565900000000    0.7095234200000000    0.8292258100000000 Bi
   0.3121894400000000    0.3987125800000000    0.6807223999999999 Bi
   0.1551129300000000    0.1809752100000000    0.7126329900000000 Bi
   0.5550389700000000    0.3427539000000000    0.0330753800000000 Bi
   0.4992078900000000    0.9013195600000000    0.6102987200000000 Bi
   0.6689907700000000    0.1202130400000000    0.6274064400000000 Bi
   0.6335907400000000    0.2534921900000000    0.9071077300000000 Bi
   0.1461428300000000    0.3337686000000000    0.4906128000000000 Bi
   0.7236527800000000    0.9137474700000000    0.5508978200000000 Bi
   0.8898886600000000    0.6650633600000000    0.6976690700000000 Bi
   0.9289597600000000    0.7125252500000000    0.2298787100000000 Bi
   0.1335541600000000    0.5859219500000000    0.8955132300000000 Bi
   0.8292261800000000    0.1377171700000000    0.7124311700000000 Bi
   0.9865818400000000    0.3840945800000000    0.7417428500000000 Bi
   0.2373890600000000    0.7397346200000000    0.4831522300000000 Bi
   0.3243263900000000    0.6805711700000000    0.6419379800000000 Bi
   0.7527628400000000    0.8357796100000000    0.1915026100000000 Se
   0.0747025600000000    0.1500652000000000    0.0167492000000000 Se
   0.6973373600000000    0.1975913700000000    0.1585227900000000 Se
   0.1815054900000000    0.2577327800000000    0.3950060100000000 Se
   0.4359877500000000    0.1217135000000000    0.3517602200000000 Se
   0.7363432500000000    0.2625555600000000    0.9898045300000000 Se
   0.8893947800000001    0.7792075300000000    0.7884182000000000 Se
   0.2981724200000000    0.0392865000000000    0.9823212400000000 Se
   0.3097248300000000    0.6299614300000000    0.9545131600000000 Se
   0.9777787500000000    0.4702653800000000    0.6560080900000000 Se
   0.9417997500000000    0.2105932000000000    0.1225464400000000 Se
   0.1129934800000000    0.5734444400000001    0.4298162300000000 Se
   0.9620510600000000    0.1066455500000000    0.2025878800000000 Se
   0.1437529800000000    0.3348246100000000    0.8729841600000000 Se
   0.1507762000000000    0.4227327800000000    0.1979427300000000 Se
   0.1581199300000000    0.8205775900000000    0.2699819600000000 Se
   0.2936289200000000    0.0999008300000000    0.0913890000000000 Se
   0.4084642900000000    0.2352644600000000    0.8969229500000000 Se
   0.8236670900000000    0.8993094600000000    0.9328301300000000 Se
   0.9089430600000000    0.1790927500000000    0.4072981800000000 Se
   0.9994862400000000    0.2468080800000000    0.5597246700000000 Se
   0.0261730600000000    0.7535270900000000    0.1471033800000000 Se
   0.4597152900000000    0.8467401300000000    0.2561360600000000 Se
   0.9291363100000000    0.5413535400000000    0.4117030900000000 Se
   0.4745156700000000    0.5620220400000000    0.9844303000000000 Se
   0.4798759300000000    0.6440955000000000    0.3669152600000000 Se
   0.5731493600000001    0.7315996299999999    0.7496124000000000 Se
   0.2157038300000000    0.2929338800000000    0.0977626300000000 Se
   0.5693725100000000    0.0155693300000000    0.2472236700000000 Se
   0.6039740700000000    0.5493562900000000    0.2278197700000000 Se
   0.0824264400000000    0.1532056900000000    0.6209065100000000 Se
   0.6102576700000000    0.8514527100000000    0.4667926400000000 Se
   0.1440989300000000    0.9378135900000000    0.7477552800000000 Se
   0.2162207700000000    0.5328365500000000    0.3227739900000000 Se
   0.8542548100000000    0.4859761200000000    0.1906081300000000 Se
   0.1172045500000000    0.1284885200000000    0.8974007600000000 Se
   0.9185287100000000    0.9634784199999999    0.5015637500000000 Se
   0.7930237000000000    0.5686317700000000    0.9504447300000000 Se
   0.8915603600000001    0.0269292900000000    0.0861487600000000 Se
   0.0982201400000000    0.6013562900000000    0.5510127600000000 Se
   0.9765579800000000    0.8644242400000000    0.3721468200000000 Se
   0.6048640100000000    0.1359228700000000    0.3848586600000000 Se
   0.6161849800000000    0.3898007300000000    0.7666797000000000 Se
   0.9167321500000000    0.6104444400000000    0.5369490099999999 Se
   0.2180753900000000    0.3421441700000000    0.9852349000000000 Se
   0.2978089700000000    0.5537594100000000    0.2005025400000000 Se
   0.0817591900000000    0.9205546400000000    0.1008253100000000 Se
   0.1494957800000000    0.9072525299999999    0.3934141900000000 Se
   0.9184913300000001    0.7322093700000000    0.0364454700000000 Se
   0.2881596900000000    0.0944967900000000    0.2019252900000000 Se
   0.6966740900000000    0.8603562900000000    0.3279484100000000 Se
   0.1004151400000000    0.2230835600000000    0.3253531800000000 Se
   0.4096103100000000    0.2421524300000000    0.1871939300000000 Se
   0.9853395900000000    0.8037015600000000    0.9209499500000000 Se
   0.4505917000000000    0.2972644600000000    0.3061183500000000 Se
   0.4225648200000000    0.8959375600000000    0.4505780500000000 Se
   0.3739860000000000    0.4064931100000000    0.0881592500000000 Se
   0.5427843200000000    0.8743847600000000    0.0038258500000000 Se
   0.0403157300000000    0.5550275500000000    0.3009058400000000 Se
   0.9552123400000000    0.4215757600000000    0.0282150500000000 Se
   0.4408644800000000    0.2500863200000000    0.4732521400000000 Se
   0.6279171300000000    0.7964123000000000    0.1338539200000000 Se
   0.4629394000000000    0.8791772300000000    0.8961798300000000 Se
   0.7787490100000000    0.2375408600000000    0.2926714100000000 Se
   0.6733935100000000    0.4857502300000000    0.0920435700000000 Se
   0.9700397600000000    0.0718604200000000    0.8354550900000000 Se
   0.1839788500000000    0.6281028500000000    0.0592228000000000 Se
   0.4742754900000000    0.0972378300000000    0.7493922100000000 Se
   0.3715500200000000    0.2316281000000000    0.9852222000000000 Se
   0.4047494800000000    0.5888751100000000    0.4981465500000000 Se
   0.1088937500000000    0.9387740999999999    0.5165099600000000 Se
   0.2164506100000000    0.6460872400000000    0.8078244500000000 Se
   0.0853936700000000    0.8099550000000000    0.0308727600000000 Se
   0.0426443500000000    0.8771331500000000    0.8203311300000000 Se
   0.6122459000000000    0.2727823700000000    0.5021742200000000 Se
   0.9651407700000000    0.4889724500000000    0.9554444000000000 Se
   0.6252823300000000    0.1265665700000000    0.0942642300000000 Se
   0.3249300100000000    0.7386786000000000    0.0996307800000000 Se
   0.9727668200000000    0.1716216700000000    0.9528084100000001 Se
   0.6501081600000000    0.5690027500000000    0.3867425200000000 Se
   0.8872713500000000    0.4237796100000000    0.8275237200000000 Se
