Bi54 Se81
1.0
  12.5739999999999998    0.0000000000000000    0.0000000000000000
   0.0000000000000000   10.8900000000000006    0.0000000000000000
   0.0000000000000000    0.0000000000000000   29.9280000000000008
Bi Se
54 81
direct
   0.5502735800000000    0.0905895300000000    0.9060602100000000 Bi
   0.8384372500000000    0.0426152400000000    0.2948626700000000 Bi
   0.8617234000000000    0.6540505100000000    0.0377853500000000 Bi
   0.5060116099999999    0.0706767700000000    0.2970378900000000 Bi
   0.1721186600000000    0.9937272700000001    0.8536497600000000 Bi
   0.8695347500000000    0.5526648300000000    0.8380386300000000 Bi
   0.5806266900000000    0.5663709800000000    0.1829233500000000 Bi
   0.3412430400000000    0.9131065200000000    0.0790463800000000 Bi
   0.7951296300000000    0.7456519700000001    0.2029203400000000 Bi
   0.4530467600000000    0.6182194700000000    0.9816459500000000 Bi
   0.3241466500000000    0.7676887100000001    0.2126911300000000 Bi
   0.3836408500000000    0.5851460100000000    0.0837994500000000 Bi
   0.3400580600000000    0.4477438000000000    0.2484148600000000 Bi
   0.2732193400000000    0.2462681400000000    0.9023148900000000 Bi
   0.8715436600000001    0.9916363600000000    0.4497032900000000 Bi
   0.6644496600000001    0.3609265400000000    0.4261968700000000 Bi
   0.3085708600000000    0.1564683200000000    0.5621120700000000 Bi
   0.6934865600000000    0.9880091800000000    0.9851015800000000 Bi
   0.6155781800000000    0.8022084500000000    0.8906178200000000 Bi
   0.0854366200000000    0.0702369100000000    0.9501186200000000 Bi
   0.8857388300000000    0.6072607900000000    0.4925250600000000 Bi
   0.1452028000000000    0.8124068000000000    0.9996117300000000 Bi
   0.9663854000000000    0.2317502300000000    0.5130366200000001 Bi
   0.4275369800000000    0.8786106500000000    0.7726971400000000 Bi
   0.7292683300000000    0.7383223100000000    0.3627486000000000 Bi
   0.9233060300000000    0.9960238800000000    0.7508607300000000 Bi
   0.9194639700000000    0.6196749300000000    0.7291406000000000 Bi
   0.9235899500000000    0.9928099200000000    0.8627425800000000 Bi
   0.3824328000000000    0.2901551900000000    0.8007170500000000 Bi
   0.9895522500000000    0.3048714400000000    0.3843136900000000 Bi
   0.2595681600000000    0.1071074400000000    0.1992605600000000 Bi
   0.9706155600000000    0.3662819100000000    0.2416399400000000 Bi
   0.0297749300000000    0.2052809900000000    0.6567762600000000 Bi
   0.7041896000000000    0.4208135900000000    0.9142411800000000 Bi
   0.5151081600000000    0.4494876000000000    0.5916987400000000 Bi
   0.8959185600000000    0.4688797100000000    0.6269486800000000 Bi
   0.8541943700000000    0.1673535400000000    0.1591065200000000 Bi
   0.3364363000000000    0.5943663900000000    0.8301657300000000 Bi
   0.2371846700000000    0.4632892600000000    0.9853465000000000 Bi
   0.9594504500000000    0.8469127600000000    0.6054210100000000 Bi
   0.8061014800000000    0.5186758500000000    0.1349121200000000 Bi
   0.4176403700000000    0.5479586800000000    0.7194536900000000 Bi
   0.3595482700000000    0.2987952200000000    0.1196879200000000 Bi
   0.9584627000000000    0.5086832000000000    0.9537516700000001 Bi
   0.9632718300000001    0.9873011900000001    0.0590851400000000 Bi
   0.8974145100000001    0.3564554600000000    0.0462797400000000 Bi
   0.0388436500000000    0.7200312200000000    0.2817899600000000 Bi
   0.8144806700000000    0.3056152400000000    0.7442171200000000 Bi
   0.4877882900000000    0.8092433400000000    0.6307354300000000 Bi
   0.0250668000000000    0.7738833800000000    0.8103338000000000 Bi
   0.7119723200000000    0.0763011900000000    0.8092959800000000 Bi
   0.7554604700000001    0.9227346199999999    0.1157695100000000 Bi
   0.5076387800000000    0.2009678600000000    0.9993273900000000 Bi
   0.3828073800000000    0.1718870500000000    0.6762366300000000 Bi
   0.4276006000000000    0.7690110200000000    0.4296398000000000 Se
   0.1955519300000000    0.3956023900000000    0.8324341800000000 Se
   0.3551248600000000    0.6522093700000000    0.3697570800000000 Se
   0.5666224000000000    0.3226841100000000    0.3145061500000000 Se
   0.6081867300000000    0.1412516100000000    0.4749455400000000 Se
   0.2771297900000000    0.0747759400000000    0.7669516800000000 Se
   0.1027063800000000    0.9419706200000000    0.6852295500000000 Se
   0.8995188500000000    0.3567355400000000    0.8882681800000000 Se
   0.4684992800000000    0.9986051400000000    0.2091746900000000 Se
   0.4747725500000000    0.7565206600000000    0.1357444500000000 Se
   0.2447423300000000    0.8701845700000000    0.2976948000000000 Se
   0.1987370800000000    0.3473700600000000    0.1856191500000000 Se
   0.5498178800000000    0.9909825500000000    0.6989097200000000 Se
   0.9650063600000000    0.9134674000000000    0.2260755800000000 Se
   0.3982384300000000    0.1115206600000000    0.3844450000000000 Se
   0.0588730700000000    0.6303700600000000    0.6554931800000000 Se
   0.1280531300000000    0.5228503200000000    0.4444366500000000 Se
   0.2011961200000000    0.4641680400000000    0.0800063500000000 Se
   0.2650986200000000    0.8827116600000000    0.4530546600000000 Se
   0.8471329700000000    0.5157814500000000    0.4040998400000000 Se
   0.5440941600000000    0.9630192800000000    0.5040948300000000 Se
   0.1392023200000000    0.6801873300000000    0.3927820100000000 Se
   0.0390798500000000    0.1690119400000000    0.3029033000000000 Se
   0.5177692100000000    0.1995702500000000    0.5959726700000000 Se
   0.6160354700000000    0.4313994500000000    0.0009736700000000 Se
   0.8052966400000000    0.0547024800000000    0.5534603000000000 Se
   0.8001304299999999    0.6771101899999999    0.5796541700000000 Se
   0.3692643600000000    0.8473443500000000    0.8634405900000000 Se
   0.8824216600000000    0.1344940300000000    0.9900237200000001 Se
   0.1408151700000000    0.6393865900000000    0.9306251700000000 Se
   0.2689891800000000    0.6986180000000000    0.7536357299999999 Se
   0.2961563500000000    0.5795023000000000    0.4900033400000000 Se
   0.9259654800000000    0.8657300300000000    0.3584121900000000 Se
   0.2124614300000000    0.6832855799999999    0.5560084199999999 Se
   0.5133052299999999    0.3215371900000000    0.7273222400000000 Se
   0.8139613500000000    0.8342387500000000    0.6876931300000000 Se
   0.3423874700000000    0.1172993600000000    0.4564511500000000 Se
   0.2297152900000000    0.3260477500000000    0.6347834800000000 Se
   0.5998242400000000    0.5980707100000000    0.6637202600000000 Se
   0.0649920500000000    0.1178301200000000    0.4434335700000000 Se
   0.3377055800000000    0.5954894400000000    0.6278889300000000 Se
   0.1249801200000000    0.4845941200000000    0.2997637700000000 Se
   0.1836169900000000    0.9857869600000000    0.3562697100000000 Se
   0.2797447100000000    0.9012194700000000    0.6592789400000000 Se
   0.7749037700000000    0.3791781500000000    0.5179313700000000 Se
   0.4946866600000000    0.1066565700000000    0.0883590600000000 Se
   0.5061428300000000    0.3281202900000000    0.1945148400000000 Se
   0.7354954700000000    0.5309660200000000    0.7680733800000000 Se
   0.6742086800000000    0.8730890700000000    0.2814825600000000 Se
   0.3933609000000000    0.4253223100000000    0.4031672700000000 Se
   0.6632137700000000    0.9551708000000000    0.5845382300000000 Se
   0.0022371600000000    0.5813177200000000    0.1818952200000000 Se
   0.3578535100000000    0.8684472000000000    0.9886317200000000 Se
   0.2973135000000000    0.2039283700000000    0.2865584100000000 Se
   0.7769254000000000    0.2528246100000000    0.2390296700000000 Se
   0.6114363000000000    0.5177364600000000    0.3376169500000000 Se
   0.8043605900000000    0.2500762200000000    0.6514414600000000 Se
   0.7973143000000000    0.1727392100000000    0.3823135500000000 Se
   0.8160155900000000    0.8313948600000000    0.9268083400000000 Se
   0.7275322100000000    0.7964361800000000    0.4587543400000000 Se
   0.0215675200000000    0.2306473800000000    0.7502369000000000 Se
   0.0280062000000000    0.1994242400000000    0.1027405800000000 Se
   0.2954254800000000    0.8758732800000000    0.5456535700000000 Se
   0.3277548900000000    0.3927924700000000    0.5223673500000000 Se
   0.8463472200000000    0.5915041300000000    0.2823422900000000 Se
   0.5319866400000000    0.9200532600000000    0.3860234600000000 Se
   0.0411929400000000    0.4562056900000000    0.5495826700000001 Se
   0.0851113400000000    0.0801698800000000    0.5754778100000000 Se
   0.2246373500000000    0.3522323200000000    0.3939681900000000 Se
   0.6445681599999999    0.8292699700000000    0.7979641100000000 Se
   0.5751845100000000    0.5547153400000000    0.4811888500000000 Se
   0.0399761400000000    0.7543250700000000    0.0769343100000000 Se
   0.6705241000000000    0.7891405000000000    0.0456144700000000 Se
   0.7226292300000000    0.3048595000000000    0.1025330800000000 Se
   0.4712565600000000    0.6444481200000000    0.2616412700000000 Se
   0.1945188500000000    0.9037548200000000    0.1527432500000000 Se
   0.5201717800000000    0.5714499500000000    0.8951102600000000 Se
   0.5278161300000000    0.6786427900000001    0.5413382100000000 Se
   0.2716732900000000    0.2105528000000000    0.9915079500000000 Se
   0.0173166900000000    0.8184793400000000    0.5033878000000001 Se
   0.5978328300000000    0.2687630900000000    0.8468324000000000 Se
