Bi54 Se81
1.0
  12.5739999999999998    0.0000000000000000    0.0000000000000000
   0.0000000000000000   10.8900000000000006    0.0000000000000000
   0.0000000000000000    0.0000000000000000   29.9280000000000008
Bi Se
54 81
direct
   0.0887426400000000    0.7934527099999999    0.2391041800000000 Bi
   0.2647550500000000    0.7205555600000000    0.8981141400000000 Bi
   0.0348441200000000    0.3965665700000000    0.2621244300000000 Bi
   0.7798154899999999    0.3499990800000000    0.2326687400000000 Bi
   0.2452521100000000    0.3669660200000000    0.8501476900000000 Bi
   0.7274192800000000    0.6050101000000000    0.7888412200000000 Bi
   0.2919468700000000    0.0746795200000000    0.9365039400000000 Bi
   0.2888865900000000    0.2848282800000000    0.1787286200000000 Bi
   0.7135843800000000    0.0700762200000000    0.2047834800000000 Bi
   0.0656998600000000    0.8827860400000000    0.3684078500000000 Bi
   0.3015699100000000    0.3432966000000000    0.5709108500000000 Bi
   0.6636535700000000    0.1738962400000000    0.3025668300000000 Bi
   0.1849920500000000    0.0181717200000000    0.7994266200000000 Bi
   0.3208986800000000    0.9341753900000000    0.2695860100000000 Bi
   0.0149045600000000    0.8149008300000000    0.6966616500000000 Bi
   0.7986575500000000    0.7821928400000000    0.1389905800000000 Bi
   0.6994313700000000    0.3851643700000000    0.4092598900000000 Bi
   0.3299268300000000    0.8962387500000000    0.1525828700000000 Bi
   0.2985151900000000    0.4333709800000000    0.9892328300000000 Bi
   0.1060028600000000    0.0986868700000000    0.2716569800000000 Bi
   0.6468498499999999    0.7729393900000000    0.2213335300000000 Bi
   0.8720510600000000    0.7394224100000000    0.4160705700000000 Bi
   0.8215619500000000    0.6851965100000000    0.9228090799999999 Bi
   0.9093216200000001    0.7251212100000000    0.0468882000000000 Bi
   0.7619317600000000    0.9589889800000000    0.8403578600000000 Bi
   0.8420765099999999    0.1447787000000000    0.0791145400000000 Bi
   0.6385438200000000    0.2288953200000000    0.7398082100000000 Bi
   0.6970884400000000    0.9862910900000000    0.3900504500000000 Bi
   0.5316446600000000    0.7292111999999999    0.1246020400000000 Bi
   0.8886519800000000    0.6131717200000000    0.2212690500000000 Bi
   0.2176363900000000    0.0703682300000000    0.4748108800000000 Bi
   0.3007873400000000    0.3962139600000000    0.2797848200000000 Bi
   0.0158947000000000    0.1781313100000000    0.6310154400000000 Bi
   0.4630085900000000    0.8944940300000001    0.5746130699999999 Bi
   0.9534857600000000    0.4563618000000000    0.5104380500000000 Bi
   0.5624415500000000    0.6364756700000000    0.3575538000000000 Bi
   0.1771075200000000    0.2964921900000000    0.7150798600000000 Bi
   0.6649069500000000    0.3572314000000000    0.1381037800000000 Bi
   0.3806990600000000    0.5643893500000000    0.1981896600000000 Bi
   0.1872443100000000    0.6609752100000000    0.7616800300000000 Bi
   0.1907094000000000    0.2162718100000000    0.3665804600000000 Bi
   0.8179513300000000    0.8751588600000000    0.5745659600000000 Bi
   0.8764203900000000    0.3902562000000000    0.0079828300000000 Bi
   0.4422665800000000    0.4061294800000000    0.4085565400000000 Bi
   0.6262947400000000    0.5843250700000000    0.6419613700000000 Bi
   0.2227875000000000    0.6828751100000000    0.4867415100000000 Bi
   0.3520979800000000    0.8044958700000000    0.0381756200000000 Bi
   0.8841394900000000    0.5051698800000000    0.1221388000000000 Bi
   0.3173659900000000    0.1596877900000000    0.0742378400000000 Bi
   0.7932941000000000    0.3175225000000000    0.8747320200000001 Bi
   0.4000262400000000    0.4288622600000000    0.0981141400000000 Bi
   0.6867886100000000    0.2259972500000000    0.5769386500000000 Bi
   0.8473318000000000    0.0282350800000000    0.9762169200000000 Bi
   0.5596254200000000    0.9027686000000000    0.3095054800000000 Bi
   0.7962494000000000    0.0865353500000000    0.6450521299999999 Se
   0.4083060300000000    0.2061202900000000    0.4987366300000000 Se
   0.1770128800000000    0.2138512400000000    0.0040229900000000 Se
   0.5590440600000000    0.4257052300000000    0.5386848400000001 Se
   0.0138706900000000    0.9759173600000000    0.0365166400000000 Se
   0.6551622400000000    0.7738512400000001    0.4387045600000000 Se
   0.1023119100000000    0.2419825500000000    0.5390079500000000 Se
   0.2740186100000000    0.8677722700000000    0.4156144700000000 Se
   0.6072196600000000    0.3849990800000000    0.8215293400000000 Se
   0.6991490400000000    0.4630551000000000    0.9534679900000000 Se
   0.6398544600000000    0.7450973400000001    0.8654076500000000 Se
   0.0730682400000000    0.2318356300000000    0.1919476700000000 Se
   0.8619794800000000    0.6119467400000000    0.6008233100000000 Se
   0.3242070900000000    0.2108053300000000    0.7797898300000000 Se
   0.0054732000000000    0.3306519700000000    0.0782461200000000 Se
   0.7550445400000000    0.5710348900000000    0.4776637300000000 Se
   0.5555535200000000    0.2110266300000000    0.9786624600000000 Se
   0.0747900400000000    0.4352865000000000    0.7852686400000000 Se
   0.1907825700000000    0.6812442600000000    0.1631849800000000 Se
   0.6755503400000000    0.0986648300000000    0.9170589400000000 Se
   0.0399840900000000    0.1099393900000000    0.4200243900000000 Se
   0.9830889100000000    0.7339338800000000    0.5013235100000000 Se
   0.4762470200000000    0.1309651100000000    0.6215206500000000 Se
   0.9092611700000000    0.0460358100000000    0.4885996400000000 Se
   0.1237641200000000    0.4456225900000000    0.6379053099999999 Se
   0.0428201000000000    0.9154857700000000    0.6041055200000000 Se
   0.5360664900000000    0.5363774100000001    0.9108336700000000 Se
   0.4065094600000000    0.8654756700000000    0.4765727700000000 Se
   0.7780889100000000    0.5714885200000001    0.3505436400000000 Se
   0.4618236000000000    0.0325362700000000    0.0082618300000000 Se
   0.4110211500000000    0.2968659300000000    0.9194316400000000 Se
   0.5764068700000000    0.1561000900000000    0.8309025000000000 Se
   0.0858517600000000    0.7936455500000000    0.8333687500000000 Se
   0.5748894500000000    0.5436326900000000    0.2560351500000000 Se
   0.1348918400000000    0.5019687800000000    0.9180850699999999 Se
   0.1029378100000000    0.1540725400000000    0.8754273600000000 Se
   0.4987855900000000    0.8076281000000000    0.6716730200000000 Se
   0.8209153800000000    0.2388411400000000    0.4890951600000000 Se
   0.7539438500000000    0.8417676800000000    0.6709158600000000 Se
   0.2296977900000000    0.8842020200000000    0.7134967300000000 Se
   0.2145729300000000    0.9109247000000000    0.5620679600000000 Se
   0.9055885200000000    0.5425023000000000    0.8475230600000000 Se
   0.0834921300000000    0.5239026600000000    0.4264137300000000 Se
   0.9788865900000000    0.2455087200000000    0.9324843000000000 Se
   0.9664363000000000    0.0388650100000000    0.7476045800000000 Se
   0.4244433000000000    0.9538227700000000    0.7202018200000000 Se
   0.8171290000000000    0.1914866900000000    0.3643220400000000 Se
   0.4473365700000000    0.6533728200000000    0.9685959600000000 Se
   0.6357420100000000    0.1181652900000000    0.1146073900000000 Se
   0.6255431800000000    0.7165417800000000    0.5573589900000000 Se
   0.5935819900000000    0.5247199299999999    0.0728294600000000 Se
   0.7300270400000000    0.8068218500000000    0.9982912300000000 Se
   0.4237665000000000    0.0806253400000000    0.2049234800000000 Se
   0.5470741200000000    0.1237777800000000    0.4516145400000000 Se
   0.8711857800000000    0.1748181800000000    0.7958249800000000 Se
   0.2131501500000000    0.7290808100000000    0.3127826800000000 Se
   0.3486297100000000    0.4903131300000000    0.7158570600000000 Se
   0.7408207400000000    0.8618539900000000    0.7499542200000000 Se
   0.9431278800000000    0.9033094600000000    0.8980139000000000 Se
   0.3327692100000000    0.5860055100000000    0.3582431200000000 Se
   0.8721266100000000    0.3847814500000000    0.6035234600000000 Se
   0.6516311400000000    0.9993425200000000    0.5260819300000000 Se
   0.5194727200000000    0.5618163500000000    0.7340881400000000 Se
   0.4744337500000000    0.8082644600000000    0.8080469800000000 Se
   0.3567814500000000    0.5945950400000000    0.8256956700000000 Se
   0.2890941600000000    0.6938659300000000    0.5990697699999999 Se
   0.3791323400000000    0.9418999100000000    0.8604587700000000 Se
   0.7868562099999999    0.4158696100000000    0.7159960600000000 Se
   0.2271035500000000    0.5780872400000000    0.0609155300000000 Se
   0.4165929700000000    0.5412699700000000    0.5058490400000000 Se
   0.9473007800000000    0.9354977000000000    0.2929764800000000 Se
   0.1825202800000000    0.8575766800000000    0.9687513400000000 Se
   0.0034945100000000    0.5975546400000000    0.9773108800000000 Se
   0.9079775700000000    0.5759155200000000    0.7107625000000000 Se
   0.0376928600000000    0.4416611600000000    0.3570599400000000 Se
   0.9059121999999999    0.0063489400000000    0.1594800900000000 Se
   0.5336130100000001    0.3326896200000000    0.6486237000000000 Se
   0.1840798500000000    0.9452690500000001    0.0864050400000000 Se
   0.3957642800000000    0.2335390300000000    0.3405316100000000 Se
   0.1481191300000000    0.5661221300000000    0.5715443700000000 Se
   0.2433569300000000    0.1464756700000000    0.6413849900000000 Se
