Bi8 Se12
1.0
   4.3085983299999997   -0.0000000000000000    0.0000000000000000
   0.0000000000000000   11.9788518899999996    0.0000000000000000
  -0.0000000000000000   -0.0000000000000000   12.2044196800000009
Bi Se
8 12
direct
   0.2500000000000000    0.9626342400000000    0.8374986500000000 Bi
   0.7500000000000000    0.0373657600000000    0.1625013500000000 Bi
   0.7500000000000000    0.4626342400000000    0.6625013500000000 Bi
   0.2500000000000000    0.5373657600000000    0.3374986500000000 Bi
   0.2500000000000000    0.1719228500000000    0.5033402100000000 Bi
   0.7500000000000000    0.8280771500000000    0.4966597900000000 Bi
   0.7500000000000000    0.6719228500000000    0.9966597900000000 Bi
   0.2500000000000000    0.3280771500000000    0.0033402100000000 Bi
   0.2500000000000000    0.2992943500000000    0.7206537100000000 Se
   0.7500000000000000    0.7007056500000000    0.2793462900000000 Se
   0.7500000000000000    0.7992943500000000    0.7793462900000000 Se
   0.2500000000000000    0.2007056500000000    0.2206537100000000 Se
   0.2500000000000000    0.9446524300000000    0.3734804500000000 Se
   0.7500000000000000    0.0553475700000000    0.6265195500000000 Se
   0.7500000000000000    0.4446524300000000    0.1265195500000000 Se
   0.2500000000000000    0.5553475700000000    0.8734804500000000 Se
   0.2500000000000000    0.8667984800000000    0.0556085200000000 Se
   0.7500000000000000    0.1332015200000000    0.9443914799999999 Se
   0.7500000000000000    0.3667984800000000    0.4443914800000000 Se
   0.2500000000000000    0.6332015200000000    0.5556085200000001 Se
