Bi54 Se81
1.0
  12.5739999999999998    0.0000000000000000    0.0000000000000000
   0.0000000000000000   10.8900000000000006    0.0000000000000000
   0.0000000000000000    0.0000000000000000   29.9280000000000008
Bi Se
54 81
direct
   0.2982630800000000    0.0455528000000000    0.3617054300000000 Bi
   0.5011818000000000    0.3966832000000000    0.5835822600000000 Bi
   0.0087895700000000    0.9506813600000000    0.0005957600000000 Bi
   0.5043677400000000    0.7137438000000000    0.3702275500000000 Bi
   0.2285812000000000    0.1381432500000000    0.2253107500000000 Bi
   0.3729386000000000    0.8012488500000000    0.7391573100000000 Bi
   0.4806123700000000    0.3621129500000000    0.4429156600000000 Bi
   0.8105018300000000    0.9172663000000000    0.5722236700000000 Bi
   0.3576515000000000    0.4144618900000000    0.3044764100000000 Bi
   0.9381088000000000    0.0206354500000000    0.1777820100000000 Bi
   0.0224558600000000    0.9575720800000000    0.3046758900000000 Bi
   0.3871123000000000    0.4346758500000000    0.1578886000000000 Bi
   0.7493589899999999    0.6886547300000000    0.7738686200000000 Bi
   0.1299013800000000    0.2362102800000000    0.0875324100000000 Bi
   0.6103038000000000    0.0637759400000000    0.1905062100000000 Bi
   0.1552393800000000    0.9447052300000000    0.4811935300000000 Bi
   0.7260712600000000    0.7694426100000000    0.9175832000000000 Bi
   0.5015548000000000    0.7636382000000000    0.6230596800000000 Bi
   0.1818951800000000    0.6723654700000000    0.3868735000000000 Bi
   0.6124479100000000    0.4457493100000000    0.8597019500000000 Bi
   0.6532098000000000    0.0184049600000000    0.7876714100000000 Bi
   0.1436185800000000    0.6832360000000000    0.9218541200000000 Bi
   0.6338166100000000    0.1199008300000000    0.6508386800000000 Bi
   0.9909710500000000    0.5942745600000000    0.2744336400000000 Bi
   0.7497152900000000    0.2812708900000000    0.5194236200000000 Bi
   0.8005264800000000    0.5677676800000000    0.6363646100000000 Bi
   0.2365054900000000    0.5680854000000000    0.0406649300000000 Bi
   0.7500397600000001    0.1770174500000000    0.9395970300000001 Bi
   0.6038690900000000    0.4657851200000000    0.9944727300000000 Bi
   0.9413782400000000    0.2308567500000000    0.6202155200000000 Bi
   0.2012899600000000    0.9474572999999999    0.6199198100000000 Bi
   0.0798791200000000    0.3160854000000000    0.9433974899999999 Bi
   0.9516796600000000    0.9182846600000000    0.7092806100000000 Bi
   0.7479203100000000    0.8267805300000000    0.2981118000000000 Bi
   0.9656672500000000    0.0339531700000000    0.8508717600000000 Bi
   0.3427103500000000    0.6672259000000000    0.5027990500000000 Bi
   0.4948107200000000    0.0259247000000000    0.5248529800000000 Bi
   0.6698719600000000    0.4717768600000000    0.2540767800000000 Bi
   0.7597065400000000    0.3259917400000000    0.1192856200000000 Bi
   0.8204954700000000    0.3202718100000000    0.7507902300000000 Bi
   0.6118912000000000    0.1533223100000000    0.3307087000000000 Bi
   0.1973238400000000    0.5683719000000000    0.6228491700000000 Bi
   0.2887696800000000    0.7623434300000000    0.2588763000000000 Bi
   0.6684857600000000    0.6596877900000000    0.5011664700000000 Bi
   0.4098918400000000    0.2319054200000000    0.9310993000000000 Bi
   0.0733951000000000    0.5501056000000000    0.1570726400000000 Bi
   0.7867098800000000    0.6967447200000000    0.1614915800000000 Bi
   0.2431557200000000    0.8854113900000000    0.1240948300000000 Bi
   0.7348663900000000    0.9735922900000000    0.0720706400000000 Bi
   0.9153364100000000    0.6026978900000000    0.0224926500000000 Bi
   0.4603817400000000    0.1556281000000000    0.0643521100000000 Bi
   0.5173302100000000    0.4547667600000000    0.7325972300000000 Bi
   0.7920049300000001    0.5165941200000000    0.3849231500000000 Bi
   0.2668776800000000    0.5145142300000000    0.8227883600000000 Bi
   0.0036830000000000    0.0073875100000000    0.6331231600000000 Se
   0.4311865800000000    0.9682764000000000    0.8760308100000000 Se
   0.0239955500000000    0.2285528000000000    0.4059225500000000 Se
   0.2334571300000000    0.1330174500000000    0.6741235600000000 Se
   0.0893733100000000    0.5330762200000000    0.9845803300000000 Se
   0.7180149500000000    0.0480431600000000    0.2653361400000000 Se
   0.8889557800000000    0.9373700600000000    0.4190082900000000 Se
   0.0788508000000000    0.4304775000000000    0.4945582700000000 Se
   0.9996238300000000    0.8616749300000000    0.9218113500000000 Se
   0.0190830300000000    0.1849651100000000    0.0114702000000000 Se
   0.5504652500000000    0.2566923800000000    0.5150888800000000 Se
   0.0326348000000000    0.6686372800000000    0.5761176800000000 Se
   0.6809249200000000    0.4710358100000000    0.7799442000000000 Se
   0.4274685900000000    0.2579715300000000    0.3658403500000000 Se
   0.8753618600000000    0.7548732800000000    0.2372026200000000 Se
   0.2141506300000000    0.4501010100000000    0.1104734700000000 Se
   0.7748035599999999    0.1413618000000000    0.5875320800000000 Se
   0.8353881000000000    0.6510000000000000    0.8553942800000000 Se
   0.2636241500000000    0.8660137700000000    0.4171398000000000 Se
   0.5078256700000000    0.7266574800000000    0.0749652500000000 Se
   0.1047184700000000    0.5520174500000000    0.7636764900000000 Se
   0.9598059500000000    0.7135491300000000    0.7565116300000000 Se
   0.0024200700000000    0.5603167999999999    0.8706308500000000 Se
   0.4525926500000000    0.0877713500000000    0.6072256700000001 Se
   0.3899522800000000    0.5986079000000000    0.5818564600000000 Se
   0.2130658500000000    0.9736014700000000    0.2861310500000000 Se
   0.6258239200000000    0.4576501400000000    0.1680717100000000 Se
   0.1428026100000000    0.7638980700000000    0.1891903900000000 Se
   0.8780547200000000    0.4022249800000000    0.2459639800000000 Se
   0.3830292700000000    0.3250257100000000    0.0107391100000000 Se
   0.1320407200000000    0.0738732800000000    0.1553899400000000 Se
   0.6500477200000000    0.1940027500000000    0.7334793500000000 Se
   0.1048807100000000    0.2147676800000000    0.7205446400000000 Se
   0.2093860300000000    0.7693498600000001    0.6763602600000000 Se
   0.8690186100000000    0.8033461900000000    0.0922951800000000 Se
   0.8930284700000000    0.6666584000000000    0.4757457900000000 Se
   0.7912152099999999    0.8237190100000000    0.6555068800000000 Se
   0.5719580100000000    0.8745013800000000    0.7279881700000000 Se
   0.1971305900000000    0.0978641000000000    0.8214828900000000 Se
   0.5504541100000000    0.6598209400000000    0.8918621400000000 Se
   0.5894607900000000    0.3241579400000000    0.9288896700000000 Se
   0.6023723600000001    0.8127731900000000    0.1837396400000000 Se
   0.5312939400000000    0.2983443500000000    0.2635929600000000 Se
   0.4218498500000000    0.1941037600000000    0.1488078100000000 Se
   0.0685732500000000    0.3176988100000000    0.3388990200000000 Se
   0.6780014300000000    0.3340642800000000    0.4156027800000000 Se
   0.4433275000000000    0.7042148800000000    0.1947086300000000 Se
   0.2755694300000000    0.2879210300000000    0.7931311800000000 Se
   0.6089589600000000    0.5907575800000000    0.6698496400000000 Se
   0.8670160600000000    0.0543783300000000    0.7730429700000000 Se
   0.8089366900000000    0.9797998200000000    0.9933025900000000 Se
   0.2663480200000000    0.3838328700000000    0.9056712800000000 Se
   0.7589160200000000    0.9926896200000001    0.8742401800000000 Se
   0.6493462700000000    0.2774995400000000    0.0469135900000000 Se
   0.3784483900000000    0.1726409600000000    0.7176911300000000 Se
   0.0862247500000000    0.4676189200000000    0.6889658500000000 Se
   0.6736941300000000    0.6211303900000000    0.3284405900000000 Se
   0.4584698600000000    0.8225399400000000    0.0097019500000000 Se
   0.3320932100000000    0.6392690500000000    0.3319085800000000 Se
   0.1817345300000000    0.2606767700000000    0.5094039000000000 Se
   0.3731565100000000    0.7637401300000000    0.8991924000000000 Se
   0.8155710200000000    0.3549393900000000    0.6668197000000000 Se
   0.7770144700000000    0.5546841100000000    0.9617264800000001 Se
   0.6967782700000000    0.4903204800000000    0.5625992399999999 Se
   0.2560219500000000    0.2928778700000000    0.6237246100000000 Se
   0.4769484700000000    0.9521368200000000    0.3332842200000000 Se
   0.7311348800000000    0.0234664800000000    0.4429631100000000 Se
   0.4262780300000000    0.6122139599999999    0.7834048400000000 Se
   0.0443526300000000    0.7530394900000000    0.5054547600000000 Se
   0.2625616400000000    0.3724315900000000    0.2269623800000000 Se
   0.6162319100000000    0.8463131300000000    0.5547664400000000 Se
   0.3482026400000000    0.9609660200000000    0.8033116100000000 Se
   0.7647391400000000    0.1001625300000000    0.1406736200000000 Se
   0.2702942600000000    0.0513618000000000    0.0559008300000000 Se
   0.9225457300000000    0.2393884300000000    0.8922734600000000 Se
   0.3128352200000000    0.8909146000000000    0.5318975500000001 Se
   0.5010155900000000    0.6011101900000000    0.4536457500000000 Se
   0.0246572300000000    0.7405739200000000    0.3389117200000000 Se
   0.9266064899999999    0.4737823700000000    0.0967515400000000 Se
   0.1319421000000000    0.7669292900000000    0.0664675200000000 Se
   0.9507388300000000    0.1998264500000000    0.2382504700000000 Se
