Bi6 Se7
1.0
   2.1089382155136107   -3.6527881392932171   -0.0000000000000000
   2.1089382155136107    3.6527881392932171    0.0000000000000001
  -0.0000000000000001   -0.0000000000000001   22.6500298534528532
Bi Se
6 7
direct
   0.6666666666666643    0.3333333333333357    0.4604365781940719 Bi
   0.3333333333333357    0.6666666666666643    0.5395634218059211 Bi
   0.6666666666666643    0.3333333333333357    0.7142078521114492 Bi
   0.3333333333333357    0.6666666666666643    0.2857921478885510 Bi
   0.0000000000000000    0.0000000000000000    0.8791161416313582 Bi
   0.0000000000000000    0.0000000000000000    0.1208838583686419 Bi
   0.3333333333333321    0.6666666666666679    0.9095039506805929 Se
   0.0000000000000000    0.0000000000000000    0.6451638118760874 Se
   0.0000000000000000    0.0000000000000000    0.3548361881239124 Se
   0.6666666666666643    0.3333333333333357    0.2045694485277578 Se
   0.3333333333333357    0.6666666666666643    0.7954305514722426 Se
   0.6666666666666643    0.3333333333333357    0.9462260857447160 Se
   0.3333333333333357    0.6666666666666643    0.0537739142552837 Se
