Bi128 Se192
1.0
  16.5549779999999984    0.0000000000000000    0.0000000000000000
   0.0000000000000000   23.2215640000000008    0.0000000000000000
   0.0000000000000000    0.0000000000000000   24.4724530000000016
Bi Se
128 192
direct
   0.0625002340685684    0.4810657886781441    0.4246039414193583 Bi
   0.0625002340685684    0.4810657886781441    0.9246069447962572 Bi
   0.0625002340685684    0.9810622574775756    0.4246039414193583 Bi
   0.0625002340685684    0.9810622574775756    0.9246069447962572 Bi
   0.3124999622470051    0.4810657886781441    0.4246039414193583 Bi
   0.3124999622470051    0.4810657886781441    0.9246069447962572 Bi
   0.3124999622470051    0.9810622574775756    0.4246039414193583 Bi
   0.3124999622470051    0.9810622574775756    0.9246069447962572 Bi
   0.5625002944733603    0.4810657886781441    0.4246039414193583 Bi
   0.5625002944733603    0.4810657886781441    0.9246069447962572 Bi
   0.5625002944733603    0.9810622574775756    0.4246039414193583 Bi
   0.5625002944733603    0.9810622574775756    0.9246069447962572 Bi
   0.8124988145559603    0.4810657886781441    0.4246039414193583 Bi
   0.8124988145559603    0.4810657886781441    0.9246069447962572 Bi
   0.8124988145559603    0.9810622574775756    0.4246039414193583 Bi
   0.8124988145559603    0.9810622574775756    0.9246069447962572 Bi
   0.1875000981577868    0.0189359769221401    0.0753941584850526 Bi
   0.1875000981577868    0.0189359769221401    0.5753938928802927 Bi
   0.1875000981577868    0.5189357616050323    0.0753941584850526 Bi
   0.1875000981577868    0.5189357616050323    0.5753938928802927 Bi
   0.4374998263362235    0.0189359769221401    0.0753941584850526 Bi
   0.4374998263362235    0.0189359769221401    0.5753938928802927 Bi
   0.4374998263362235    0.5189357616050323    0.0753941584850526 Bi
   0.4374998263362235    0.5189357616050323    0.5753938928802927 Bi
   0.6874971383229868    0.0189359769221401    0.0753941584850526 Bi
   0.6874971383229868    0.0189359769221401    0.5753938928802927 Bi
   0.6874971383229868    0.5189357616050323    0.0753941584850526 Bi
   0.6874971383229868    0.5189357616050323    0.5753938928802927 Bi
   0.9375004907889338    0.0189359769221401    0.0753941584850526 Bi
   0.9375004907889338    0.0189359769221401    0.5753938928802927 Bi
   0.9375004907889338    0.5189357616050323    0.0753941584850526 Bi
   0.9375004907889338    0.5189357616050323    0.5753938928802927 Bi
   0.1875000981577868    0.2310641092047030    0.3253940256826726 Bi
   0.1875000981577868    0.2310641092047030    0.8253933514552055 Bi
   0.1875000981577868    0.7310618699067816    0.3253940256826726 Bi
   0.1875000981577868    0.7310618699067816    0.8253933514552055 Bi
   0.4374998263362235    0.2310641092047030    0.3253940256826726 Bi
   0.4374998263362235    0.2310641092047030    0.8253933514552055 Bi
   0.4374998263362235    0.7310618699067816    0.3253940256826726 Bi
   0.4374998263362235    0.7310618699067816    0.8253933514552055 Bi
   0.6874971383229868    0.2310641092047030    0.3253940256826726 Bi
   0.6874971383229868    0.2310641092047030    0.8253933514552055 Bi
   0.6874971383229868    0.7310618699067816    0.3253940256826726 Bi
   0.6874971383229868    0.7310618699067816    0.8253933514552055 Bi
   0.9375004907889338    0.2310641092047030    0.3253940256826726 Bi
   0.9375004907889338    0.2310641092047030    0.8253933514552055 Bi
   0.9375004907889338    0.7310618699067816    0.3253940256826726 Bi
   0.9375004907889338    0.7310618699067816    0.8253933514552055 Bi
   0.0625002340685684    0.2689358046684539    0.1746057087125676 Bi
   0.0625002340685684    0.2689358046684539    0.6746074862213444 Bi
   0.0625002340685684    0.7689361491758263    0.1746057087125676 Bi
   0.0625002340685684    0.7689361491758263    0.6746074862213444 Bi
   0.3124999622470051    0.2689358046684539    0.1746057087125676 Bi
   0.3124999622470051    0.2689358046684539    0.6746074862213444 Bi
   0.3124999622470051    0.7689361491758263    0.1746057087125676 Bi
   0.3124999622470051    0.7689361491758263    0.6746074862213444 Bi
   0.5625002944733603    0.2689358046684539    0.1746057087125676 Bi
   0.5625002944733603    0.2689358046684539    0.6746074862213444 Bi
   0.5625002944733603    0.7689361491758263    0.1746057087125676 Bi
   0.5625002944733603    0.7689361491758263    0.6746074862213444 Bi
   0.8124988145559603    0.2689358046684539    0.1746057087125676 Bi
   0.8124988145559603    0.2689358046684539    0.6746074862213444 Bi
   0.8124988145559603    0.7689361491758263    0.1746057087125676 Bi
   0.8124988145559603    0.7689361491758263    0.6746074862213444 Bi
   0.0625002340685684    0.0852608377282426    0.2593969635982138 Bi
   0.0625002340685684    0.0852608377282426    0.7593966979934540 Bi
   0.0625002340685684    0.5852620435040465    0.2593969635982138 Bi
   0.0625002340685684    0.5852620435040465    0.7593966979934540 Bi
   0.3124999622470051    0.0852608377282426    0.2593969635982138 Bi
   0.3124999622470051    0.0852608377282426    0.7593966979934540 Bi
   0.3124999622470051    0.5852620435040465    0.2593969635982138 Bi
   0.3124999622470051    0.5852620435040465    0.7593966979934540 Bi
   0.5625002944733603    0.0852608377282426    0.2593969635982138 Bi
   0.5625002944733603    0.0852608377282426    0.7593966979934540 Bi
   0.5625002944733603    0.5852620435040465    0.2593969635982138 Bi
   0.5625002944733603    0.5852620435040465    0.7593966979934540 Bi
   0.8124988145559603    0.0852608377282426    0.2593969635982138 Bi
   0.8124988145559603    0.0852608377282426    0.7593966979934540 Bi
   0.8124988145559603    0.5852620435040465    0.2593969635982138 Bi
   0.8124988145559603    0.5852620435040465    0.7593966979934540 Bi
   0.1875000981577868    0.4147390761449143    0.2406031794197337 Bi
   0.1875000981577868    0.4147390761449143    0.7406041396830959 Bi
   0.1875000981577868    0.9147402819207183    0.2406031794197337 Bi
   0.1875000981577868    0.9147402819207183    0.7406041396830959 Bi
   0.4374998263362235    0.4147390761449143    0.2406031794197337 Bi
   0.4374998263362235    0.4147390761449143    0.7406041396830959 Bi
   0.4374998263362235    0.9147402819207183    0.2406031794197337 Bi
   0.4374998263362235    0.9147402819207183    0.7406041396830959 Bi
   0.6874971383229868    0.4147390761449143    0.2406031794197337 Bi
   0.6874971383229868    0.4147390761449143    0.7406041396830959 Bi
   0.6874971383229868    0.9147402819207183    0.2406031794197337 Bi
   0.6874971383229868    0.9147402819207183    0.7406041396830959 Bi
   0.9375004907889338    0.4147390761449143    0.2406031794197337 Bi
   0.9375004907889338    0.4147390761449143    0.7406041396830959 Bi
   0.9375004907889338    0.9147402819207183    0.2406031794197337 Bi
   0.9375004907889338    0.9147402819207183    0.7406041396830959 Bi
   0.1875000981577868    0.3352607946648211    0.4906046811081831 Bi
   0.1875000981577868    0.3352607946648211    0.9906035982580086 Bi
   0.1875000981577868    0.8352624310748407    0.4906046811081831 Bi
   0.1875000981577868    0.8352624310748407    0.9906035982580086 Bi
   0.4374998263362235    0.3352607946648211    0.4906046811081831 Bi
   0.4374998263362235    0.3352607946648211    0.9906035982580086 Bi
   0.4374998263362235    0.8352624310748407    0.4906046811081831 Bi
   0.4374998263362235    0.8352624310748407    0.9906035982580086 Bi
   0.6874971383229868    0.3352607946648211    0.4906046811081831 Bi
   0.6874971383229868    0.3352607946648211    0.9906035982580086 Bi
   0.6874971383229868    0.8352624310748407    0.4906046811081831 Bi
   0.6874971383229868    0.8352624310748407    0.9906035982580086 Bi
   0.9375004907889338    0.3352607946648211    0.4906046811081831 Bi
   0.9375004907889338    0.3352607946648211    0.9906035982580086 Bi
   0.9375004907889338    0.8352624310748407    0.4906046811081831 Bi
   0.9375004907889338    0.8352624310748407    0.9906035982580086 Bi
   0.0625002340685684    0.1647391192083358    0.0093968920892401 Bi
   0.0625002340685684    0.1647391192083358    0.5093972394185413 Bi
   0.0625002340685684    0.6647398943499241    0.0093968920892401 Bi
   0.0625002340685684    0.6647398943499241    0.5093972394185413 Bi
   0.3124999622470051    0.1647391192083358    0.0093968920892401 Bi
   0.3124999622470051    0.1647391192083358    0.5093972394185413 Bi
   0.3124999622470051    0.6647398943499241    0.0093968920892401 Bi
   0.3124999622470051    0.6647398943499241    0.5093972394185413 Bi
   0.5625002944733603    0.1647391192083358    0.0093968920892401 Bi
   0.5625002944733603    0.1647391192083358    0.5093972394185413 Bi
   0.5625002944733603    0.6647398943499241    0.0093968920892401 Bi
   0.5625002944733603    0.6647398943499241    0.5093972394185413 Bi
   0.8124988145559603    0.1647391192083358    0.0093968920892401 Bi
   0.8124988145559603    0.1647391192083358    0.5093972394185413 Bi
   0.8124988145559603    0.6647398943499241    0.0093968920892401 Bi
   0.8124988145559603    0.6647398943499241    0.5093972394185413 Bi
   0.0625002340685684    0.1523825010236175    0.3559156901843881 Se
   0.0625002340685684    0.1523825010236175    0.8559174676931650 Se
   0.0625002340685684    0.6523806923599117    0.3559156901843881 Se
   0.0625002340685684    0.6523806923599117    0.8559174676931650 Se
   0.3124999622470051    0.1523825010236175    0.3559156901843881 Se
   0.3124999622470051    0.1523825010236175    0.8559174676931650 Se
   0.3124999622470051    0.6523806923599117    0.3559156901843881 Se
   0.3124999622470051    0.6523806923599117    0.8559174676931650 Se
   0.5625002944733603    0.1523825010236175    0.3559156901843881 Se
   0.5625002944733603    0.1523825010236175    0.8559174676931650 Se
   0.5625002944733603    0.6523806923599117    0.3559156901843881 Se
   0.5625002944733603    0.6523806923599117    0.8559174676931650 Se
   0.8124988145559603    0.1523825010236175    0.3559156901843881 Se
   0.8124988145559603    0.1523825010236175    0.8559174676931650 Se
   0.8124988145559603    0.6523806923599117    0.3559156901843881 Se
   0.8124988145559603    0.6523806923599117    0.8559174676931650 Se
   0.1875000981577868    0.3476178434837550    0.1440844528335594 Se
   0.1875000981577868    0.3476178434837550    0.6440833699833849 Se
   0.1875000981577868    0.8476173267226962    0.1440844528335594 Se
   0.1875000981577868    0.8476173267226962    0.6440833699833849 Se
   0.4374998263362235    0.3476178434837550    0.1440844528335594 Se
   0.4374998263362235    0.3476178434837550    0.6440833699833849 Se
   0.4374998263362235    0.8476173267226962    0.1440844528335594 Se
   0.4374998263362235    0.8476173267226962    0.6440833699833849 Se
   0.6874971383229868    0.3476178434837550    0.1440844528335594 Se
   0.6874971383229868    0.3476178434837550    0.6440833699833849 Se
   0.6874971383229868    0.8476173267226962    0.1440844528335594 Se
   0.6874971383229868    0.8476173267226962    0.6440833699833849 Se
   0.9375004907889338    0.3476178434837550    0.1440844528335594 Se
   0.9375004907889338    0.3476178434837550    0.6440833699833849 Se
   0.9375004907889338    0.8476173267226962    0.1440844528335594 Se
   0.9375004907889338    0.8476173267226962    0.6440833699833849 Se
   0.1875000981577868    0.4023824579601959    0.3940843200311795 Se
   0.1875000981577868    0.4023824579601959    0.8940828285582978 Se
   0.1875000981577868    0.9023810799307058    0.3940843200311795 Se
   0.1875000981577868    0.9023810799307058    0.8940828285582978 Se
   0.4374998263362235    0.4023824579601959    0.3940843200311795 Se
   0.4374998263362235    0.4023824579601959    0.8940828285582978 Se
   0.4374998263362235    0.9023810799307058    0.3940843200311795 Se
   0.4374998263362235    0.9023810799307058    0.8940828285582978 Se
   0.6874971383229868    0.4023824579601959    0.3940843200311795 Se
   0.6874971383229868    0.4023824579601959    0.8940828285582978 Se
   0.6874971383229868    0.9023810799307058    0.3940843200311795 Se
   0.6874971383229868    0.9023810799307058    0.8940828285582978 Se
   0.9375004907889338    0.4023824579601959    0.3940843200311795 Se
   0.9375004907889338    0.4023824579601959    0.8940828285582978 Se
   0.9375004907889338    0.9023810799307058    0.3940843200311795 Se
   0.9375004907889338    0.9023810799307058    0.8940828285582978 Se
   0.0625002340685684    0.0976178865471766    0.1059154143640607 Se
   0.0625002340685684    0.0976178865471766    0.6059139228911788 Se
   0.0625002340685684    0.5976169391519021    0.1059154143640607 Se
   0.0625002340685684    0.5976169391519021    0.6059139228911788 Se
   0.3124999622470051    0.0976178865471766    0.1059154143640607 Se
   0.3124999622470051    0.0976178865471766    0.6059139228911788 Se
   0.3124999622470051    0.5976169391519021    0.1059154143640607 Se
   0.3124999622470051    0.5976169391519021    0.6059139228911788 Se
   0.5625002944733603    0.0976178865471766    0.1059154143640607 Se
   0.5625002944733603    0.0976178865471766    0.6059139228911788 Se
   0.5625002944733603    0.5976169391519021    0.1059154143640607 Se
   0.5625002944733603    0.5976169391519021    0.6059139228911788 Se
   0.8124988145559603    0.0976178865471766    0.1059154143640607 Se
   0.8124988145559603    0.0976178865471766    0.6059139228911788 Se
   0.8124988145559603    0.5976169391519021    0.1059154143640607 Se
   0.8124988145559603    0.5976169391519021    0.6059139228911788 Se
   0.0625002340685684    0.4739775494880535    0.1875561881761505 Se
   0.0625002340685684    0.4739775494880535    0.6875567398168054 Se
   0.0625002340685684    0.9739783246296417    0.1875561881761505 Se
   0.0625002340685684    0.9739783246296417    0.6875567398168054 Se
   0.3124999622470051    0.4739775494880535    0.1875561881761505 Se
   0.3124999622470051    0.4739775494880535    0.6875567398168054 Se
   0.3124999622470051    0.9739783246296417    0.1875561881761505 Se
   0.3124999622470051    0.9739783246296417    0.6875567398168054 Se
   0.5625002944733603    0.4739775494880535    0.1875561881761505 Se
   0.5625002944733603    0.4739775494880535    0.6875567398168054 Se
   0.5625002944733603    0.9739783246296417    0.1875561881761505 Se
   0.5625002944733603    0.9739783246296417    0.6875567398168054 Se
   0.8124988145559603    0.4739775494880535    0.1875561881761505 Se
   0.8124988145559603    0.4739775494880535    0.6875567398168054 Se
   0.8124988145559603    0.9739783246296417    0.1875561881761505 Se
   0.8124988145559603    0.9739783246296417    0.6875567398168054 Se
   0.1875000981577868    0.0260204265311329    0.3124439548417970 Se
   0.1875000981577868    0.0260204265311329    0.8124440978597445 Se
   0.1875000981577868    0.5260196944529663    0.3124439548417970 Se
   0.1875000981577868    0.5260196944529663    0.8124440978597445 Se
   0.4374998263362235    0.0260204265311329    0.3124439548417970 Se
   0.4374998263362235    0.0260204265311329    0.8124440978597445 Se
   0.4374998263362235    0.5260196944529663    0.3124439548417970 Se
   0.4374998263362235    0.5260196944529663    0.8124440978597445 Se
   0.6874971383229868    0.0260204265311329    0.3124439548417970 Se
   0.6874971383229868    0.0260204265311329    0.8124440978597445 Se
   0.6874971383229868    0.5260196944529663    0.3124439548417970 Se
   0.6874971383229868    0.5260196944529663    0.8124440978597445 Se
   0.9375004907889338    0.0260204265311329    0.3124439548417970 Se
   0.9375004907889338    0.0260204265311329    0.8124440978597445 Se
   0.9375004907889338    0.5260196944529663    0.3124439548417970 Se
   0.9375004907889338    0.5260196944529663    0.8124440978597445 Se
   0.1875000981577868    0.2239797457225534    0.0624440876441769 Se
   0.1875000981577868    0.2239797457225534    0.5624446392848318 Se
   0.1875000981577868    0.7239779370588476    0.0624440876441769 Se
   0.1875000981577868    0.7239779370588476    0.5624446392848318 Se
   0.4374998263362235    0.2239797457225534    0.0624440876441769 Se
   0.4374998263362235    0.2239797457225534    0.5624446392848318 Se
   0.4374998263362235    0.7239779370588476    0.0624440876441769 Se
   0.4374998263362235    0.7239779370588476    0.5624446392848318 Se
   0.6874971383229868    0.2239797457225534    0.0624440876441769 Se
   0.6874971383229868    0.2239797457225534    0.5624446392848318 Se
   0.6874971383229868    0.7239779370588476    0.0624440876441769 Se
   0.6874971383229868    0.7239779370588476    0.5624446392848318 Se
   0.9375004907889338    0.2239797457225534    0.0624440876441769 Se
   0.9375004907889338    0.2239797457225534    0.5624446392848318 Se
   0.9375004907889338    0.7239779370588476    0.0624440876441769 Se
   0.9375004907889338    0.7239779370588476    0.5624446392848318 Se
   0.0625002340685684    0.2760205987848192    0.4375572812418926 Se
   0.0625002340685684    0.2760205987848192    0.9375561983917181 Se
   0.0625002340685684    0.7760200820237603    0.4375572812418926 Se
   0.0625002340685684    0.7760200820237603    0.9375561983917181 Se
   0.3124999622470051    0.2760205987848192    0.4375572812418926 Se
   0.3124999622470051    0.2760205987848192    0.9375561983917181 Se
   0.3124999622470051    0.7760200820237603    0.4375572812418926 Se
   0.3124999622470051    0.7760200820237603    0.9375561983917181 Se
   0.5625002944733603    0.2760205987848192    0.4375572812418926 Se
   0.5625002944733603    0.2760205987848192    0.9375561983917181 Se
   0.5625002944733603    0.7760200820237603    0.4375572812418926 Se
   0.5625002944733603    0.7760200820237603    0.9375561983917181 Se
   0.8124988145559603    0.2760205987848192    0.4375572812418926 Se
   0.8124988145559603    0.2760205987848192    0.9375561983917181 Se
   0.8124988145559603    0.7760200820237603    0.4375572812418926 Se
   0.8124988145559603    0.7760200820237603    0.9375561983917181 Se
   0.0625002340685684    0.4335539156621837    0.0262518023836842 Se
   0.0625002340685684    0.4335539156621837    0.5262529260961294 Se
   0.0625002340685684    0.9335503844616151    0.0262518023836842 Se
   0.0625002340685684    0.9335503844616151    0.5262529260961294 Se
   0.3124999622470051    0.4335539156621837    0.0262518023836842 Se
   0.3124999622470051    0.4335539156621837    0.5262529260961294 Se
   0.3124999622470051    0.9335503844616151    0.0262518023836842 Se
   0.3124999622470051    0.9335503844616151    0.5262529260961294 Se
   0.5625002944733603    0.4335539156621837    0.0262518023836842 Se
   0.5625002944733603    0.4335539156621837    0.5262529260961294 Se
   0.5625002944733603    0.9335503844616151    0.0262518023836842 Se
   0.5625002944733603    0.9335503844616151    0.5262529260961294 Se
   0.8124988145559603    0.4335539156621837    0.0262518023836842 Se
   0.8124988145559603    0.4335539156621837    0.5262529260961294 Se
   0.8124988145559603    0.9335503844616151    0.0262518023836842 Se
   0.8124988145559603    0.9335503844616151    0.5262529260961294 Se
   0.1875000981577868    0.0664481513820516    0.4737489944305950 Se
   0.1875000981577868    0.0664481513820516    0.9737479115804205 Se
   0.1875000981577868    0.5664476346209928    0.4737489944305950 Se
   0.1875000981577868    0.5664476346209928    0.9737479115804205 Se
   0.4374998263362235    0.0664481513820516    0.4737489944305950 Se
   0.4374998263362235    0.0664481513820516    0.9737479115804205 Se
   0.4374998263362235    0.5664476346209928    0.4737489944305950 Se
   0.4374998263362235    0.5664476346209928    0.9737479115804205 Se
   0.6874971383229868    0.0664481513820516    0.4737489944305950 Se
   0.6874971383229868    0.0664481513820516    0.9737479115804205 Se
   0.6874971383229868    0.5664476346209928    0.4737489944305950 Se
   0.6874971383229868    0.5664476346209928    0.9737479115804205 Se
   0.9375004907889338    0.0664481513820516    0.4737489944305950 Se
   0.9375004907889338    0.0664481513820516    0.9737479115804205 Se
   0.9375004907889338    0.5664476346209928    0.4737489944305950 Se
   0.9375004907889338    0.5664476346209928    0.9737479115804205 Se
   0.1875000981577868    0.1835518055545268    0.2237483099875603 Se
   0.1875000981577868    0.1835518055545268    0.7237484530055078 Se
   0.1875000981577868    0.6835499968908210    0.2237483099875603 Se
   0.1875000981577868    0.6835499968908210    0.7237484530055078 Se
   0.4374998263362235    0.1835518055545268    0.2237483099875603 Se
   0.4374998263362235    0.1835518055545268    0.7237484530055078 Se
   0.4374998263362235    0.6835499968908210    0.2237483099875603 Se
   0.4374998263362235    0.6835499968908210    0.7237484530055078 Se
   0.6874971383229868    0.1835518055545268    0.2237483099875603 Se
   0.6874971383229868    0.1835518055545268    0.7237484530055078 Se
   0.6874971383229868    0.6835499968908210    0.2237483099875603 Se
   0.6874971383229868    0.6835499968908210    0.7237484530055078 Se
   0.9375004907889338    0.1835518055545268    0.2237483099875603 Se
   0.9375004907889338    0.1835518055545268    0.7237484530055078 Se
   0.9375004907889338    0.6835499968908210    0.2237483099875603 Se
   0.9375004907889338    0.6835499968908210    0.7237484530055078 Se
   0.0625002340685684    0.3164481083186301    0.2762518330303873 Se
   0.0625002340685684    0.3164481083186301    0.7762523846710421 Se
   0.0625002340685684    0.8164480221917869    0.2762518330303873 Se
   0.0625002340685684    0.8164480221917869    0.7762523846710421 Se
   0.3124999622470051    0.3164481083186301    0.2762518330303873 Se
   0.3124999622470051    0.3164481083186301    0.7762523846710421 Se
   0.3124999622470051    0.8164480221917869    0.2762518330303873 Se
   0.3124999622470051    0.8164480221917869    0.7762523846710421 Se
   0.5625002944733603    0.3164481083186301    0.2762518330303873 Se
   0.5625002944733603    0.3164481083186301    0.7762523846710421 Se
   0.5625002944733603    0.8164480221917869    0.2762518330303873 Se
   0.5625002944733603    0.8164480221917869    0.7762523846710421 Se
   0.8124988145559603    0.3164481083186301    0.2762518330303873 Se
   0.8124988145559603    0.3164481083186301    0.7762523846710421 Se
   0.8124988145559603    0.8164480221917869    0.2762518330303873 Se
   0.8124988145559603    0.8164480221917869    0.7762523846710421 Se
