Nb2 Se3
1.0
   1.7306773527408896   -2.9976211064560245    0.0000000000000000
   1.7306773527408896    2.9976211064560245    0.0000000000000000
   0.0000000000000000    0.0000000000000000   13.6615733900000009
Nb Se
2 3
direct
   0.0000000000000000    0.0000000000000000    0.4961624900000000 Nb
   0.0000000000000000    0.0000000000000000    0.7517835600000000 Nb
   0.6666666666666666    0.3333333333333333    0.6276822200000001 Se
   0.3333333333333333    0.6666666666666666    0.3744682900000000 Se
   0.6666666666666666    0.3333333333333333    0.8749034400000000 Se
