H814 C812 N1
1.0
  27.5689999999999991    0.0000000000000000    0.0000000000000000
   0.0000000000000000   27.5379000000000040    0.0000000000000000
   0.0000000000000000    0.0000000000000000   27.5820000000000007
H C N
814 812 1
direct
   0.4085004896804382    0.4654861118676443    0.5389540279892684 H
   0.4002876419166457    0.4563434394053287    0.6370440867232253 H
   0.4693687112336322    0.4708864873501610    0.6836672467551301 H
   0.5454720882150242    0.4932148057767660    0.6522463925748676 H
   0.5587623780332984    0.5048752083492205    0.5636168515698644 H
   0.5678921977583520    0.5185243972851961    0.4893864476832717 H
   0.5207841053357032    0.5628334041448332    0.4700881371909217 H
   0.4630218723929052    0.4897884007131990    0.4679547530998477 H
   0.5865109361964527    0.5369621503455240    0.3542389964469583 H
   0.5983336356052090    0.5572353011667558    0.4112964977159017 H
   0.5489575247560667    0.5847773432251552    0.3839228482343557 H
   0.5318516812361712    0.4295389263524089    0.4157736929881807 H
   0.5923624360694985    0.4572026189360844    0.4168319918787615 H
   0.5581664188037291    0.4567294528631451    0.3611242839533029 H
   0.7984330225978457    0.6589638280333651    0.2592350083387717 H
   0.8766585657804058    0.6680037330370144    0.2199031977376550 H
   0.8772897094562736    0.7356900853006222    0.1555249800594591 H
   0.8088541477746748    0.7883498741734121    0.1413041113769850 H
   0.7310424752439337    0.7789664426118186    0.1873359437314190 H
   0.6400935833726288    0.7232203617559799    0.2826140236386049 H
   0.6526065508360841    0.7303425460910238    0.2176713073743746 H
   0.7247636838478003    0.7100581380570051    0.3044909723732869 H
   0.1229714534440858    0.6209162644936616    0.2120216082952650 H
   0.0712902172730241    0.5499413535527401    0.1841389311870060 H
   0.0248068482716095    0.5547263952588978    0.1097201073163658 H
   0.0338858863215931    0.6360165444714377    0.0548364875643535 H
   0.0798396749972796    0.7036938183376364    0.0865890798346748 H
   0.1357249084116218    0.7541878647246159    0.2389290116742803 H
   0.1208676411911930    0.6904113966569712    0.2452142701762018 H
   0.1289419275272952    0.7464588803067773    0.1513853237618737 H
   0.8901012006238894    0.7888804157179742    0.4624642883039664 H
   0.9679785266059707    0.7479132395716449    0.4724291929519252 H
   0.9951394682433171    0.6813264628021747    0.4128460590240011 H
   0.9337299140338787    0.6523006474713033    0.3519715756652889 H
   0.8594736842105265    0.6986157259631272    0.3403944601551737 H
   0.7609383728100405    0.8084007858260798    0.4172181132622725 H
   0.8113573216293666    0.8126215143493151    0.4558273511710536 H
   0.7967684718343069    0.7475904117597928    0.3658346022768472 H
   0.0803728825855128    0.6907937787558237    0.8223906895801609 H
   0.0683485073814793    0.6925357416505979    0.7342404466681169 H
   0.1192643911639886    0.6358952570820580    0.6779722282648103 H
   0.1763422684899707    0.5840114896197606    0.7122964252048439 H
   0.1824172077333238    0.5762004364893476    0.8038274961931696 H
   0.1435318655011064    0.6004433889294390    0.9355050395185266 H
   0.1713522434618595    0.5660028542481453    0.8781125371619173 H
   0.1126373825673765    0.6592550630222350    0.8920491624972808 H
   0.0569371395407886    0.7368735451868154    0.3306754405046770 H
   0.0763865210925315    0.6488523089995969    0.3316670292219563 H
   0.0233450614820995    0.5917455579401482    0.2805583351461098 H
   0.9561609053647214    0.6293410172889002    0.2275462257994344 H
   0.9392796256665097    0.7179766794127366    0.2340069610615619 H
   0.9493924335304148    0.8516415558194343    0.2749521427017620 H
   0.9318183466937504    0.7998837965131693    0.2344877093756798 H
   0.0083100583989264    0.8021305183038651    0.3165767529548256 H
   0.7968711233631980    0.9786004016283014    0.6034812558915236 H
   0.8090884689324969    0.9063036760246789    0.5521901965049670 H
   0.7639482752366791    0.9013650278343666    0.4714337611485752 H
   0.7325097029272012    0.9725941339027305    0.4345460807773185 H
   0.7172650440712397    0.0445023040972624    0.4913016460010151 H
   0.7585273314229753    0.1007883680309683    0.6421129722282648 H
   0.7914019369581778    0.0419966664124716    0.6496853020085563 H
   0.7259062715368712    0.0868657377650439    0.5649470669277065 H
   0.8724400594871052    0.0782557856626686    0.2702657530273366 H
   0.9267837063368278    0.1438631849196925    0.2618577333043289 H
   0.9289600638398202    0.1963639202698826    0.1823185410775143 H
   0.8726177953498496    0.1705856292600380    0.1176854470306722 H
   0.8243784685697706    0.0978578613474521    0.1222137625987963 H
   0.7745725271137875    0.9803398225718012    0.1751816402001306 H
   0.7799477674199283    0.0250999531554694    0.1346892901167428 H
   0.8287163117994851    0.0126843368593829    0.2393695163512436 H
   0.6234865247197940    0.3788248196122436    0.3424932927271409 H
   0.6897402880046432    0.4155527473046239    0.3850619969545356 H
   0.7215118430120788    0.4963314922343389    0.3496011891813501 H
   0.6728706155464473    0.5392317496976894    0.2915818287288812 H
   0.6041169429431609    0.5064175191281833    0.2492705387571605 H
   0.5132928651746528    0.4076396529873376    0.2177525197592633 H
   0.5383524973702348    0.4671417210462672    0.2237625987963164 H
   0.5686804019006857    0.3719887863635209    0.2737713001232688 H
   0.7411331568065582    0.3214035928665585    0.3598760060909288 H
   0.6790376872574270    0.3237055113134989    0.4329124066420129 H
   0.7143704885922597    0.3332302027387711    0.5180803059966644 H
   0.7954274728862128    0.3511215452158662    0.5340365818287288 H
   0.8543976930610471    0.3535574608085585    0.4646938220578639 H
   0.8990641662737133    0.3554849861463655    0.3299637444710318 H
   0.8974536617214991    0.3683617850308122    0.3981893988833297 H
   0.8180187892197761    0.3269127275500311    0.3317174244072221 H
   0.3153763284848925    0.3437898314686306    0.0294032339931840 H
   0.3519735935289638    0.4188086237512664    0.9959466318613588 H
   0.3375135115528312    0.4351762480072918    0.9043144079472119 H
   0.2803231890891945    0.3878545568107953    0.8608552679283592 H
   0.2495872175269325    0.3113352870044557    0.8878652744543543 H
   0.2226221480648556    0.2364944313110296    0.0319084910448844 H
   0.2445406072037434    0.2994959673758711    0.0463418171271119 H
   0.2565334252239836    0.2488759128328595    0.9526792835907476 H
   0.6445946534150677    0.4718130649032788    0.7913157131462548 H
   0.7028045993688564    0.4719283242367792    0.8593528388079181 H
   0.7202179984765501    0.3965040907258723    0.9009462693060691 H
   0.6975842431716786    0.3197353465587428    0.8715176564426075 H
   0.6399593746599443    0.3133717531111668    0.7960876658690450 H
   0.5393572490841164    0.4191637706578934    0.7041244289754187 H
   0.5684381007653526    0.4579506788825582    0.7520897686897252 H
   0.6024146686495703    0.3559494369577928    0.7251207309114640 H
   0.9303130327541806    0.7506799719659090    0.8519907910956421 H
   0.9428960063839823    0.6907625490687382    0.9162243492132550 H
   0.0157495737966557    0.6900602442452038    0.9680480023203539 H
   0.0787224781457435    0.7492081821780167    0.9486005365818287 H
   0.0692335594326962    0.8140221295015233    0.8816692045536944 H
   0.9433820595596504    0.8826853173263032    0.7958723080269742 H
   0.9144292502448403    0.8386648945634926    0.8375056196069900 H
   0.0226449998186369    0.8406824776035935    0.8081415415850918 H
   0.8304084297580616    0.6158062161602736    0.6797095932129650 H
   0.8480982262686353    0.5886436511135562    0.5964237546225799 H
   0.7889379375385398    0.5464668692964969    0.5492437096657240 H
   0.7157557401429143    0.5054435523405925    0.5946508592560366 H
   0.7012441510392109    0.5279770788622227    0.6838242331955624 H
   0.7789324966447823    0.6169446471953201    0.8116539772315278 H
   0.8150542275744497    0.6301896658786620    0.7588840548183597 H
   0.7192629402589866    0.5728748379506062    0.7518062504531940 H
   0.5443454604809752    0.6412878251428031    0.4795088463490683 H
   0.6213783597518954    0.5878077122801666    0.4850198317743456 H
   0.6871638434473504    0.6142247593316849    0.5434286853745196 H
   0.6728278138488886    0.6812817970869239    0.5961155826263506 H
   0.5968783778882080    0.7371222932758127    0.5845076499166123 H
   0.4559722877144620    0.7460746825284426    0.5009980422014357 H
   0.4963901120824115    0.7086865737765043    0.4635686679718658 H
   0.5153507200116073    0.7402231106947152    0.5687760133420346 H
   0.7445380681199899    0.4103457416869115    0.6734653034587775 H
   0.7679567630309408    0.4168389746494831    0.5904720469871656 H
   0.8553324386085824    0.3965629187410805    0.5656602131825104 H
   0.9136747796438032    0.3778120335973332    0.6342886665216445 H
   0.8833690014146326    0.3637630320394802    0.7177731854107752 H
   0.7924008850520513    0.3815850155603732    0.8302541512580668 H
   0.8451800935833729    0.3585592946448350    0.7930374882169530 H
   0.7603351590554611    0.4157063537887784    0.7509865129432238 H
   0.2211001487177628    0.7731235860396036    0.1280835327387427 H
   0.2254194929087019    0.8359057880230520    0.1900348053078094 H
   0.2751187928470384    0.8211410456134999    0.2632506707272859 H
   0.3128444992564112    0.7429248417635331    0.2799960118918135 H
   0.2986916464144511    0.6754603655325933    0.2195141759118266 H
   0.2217882404149589    0.6500455735549916    0.0692371836705098 H
   0.1978559251333020    0.7048050141804567    0.0891704734972083 H
   0.2833813341071494    0.6513114652896556    0.1338989195852367 H
   0.9185643295005262    0.1403178891636618    0.3568229279965194 H
   0.9018752947150787    0.0614498563797531    0.3881067362772823 H
   0.9697304943958797    0.0063657722629540    0.4088652019432963 H
   0.0558888606768472    0.0309791233173191    0.3917344645058371 H
   0.0715550074358882    0.1138104212739534    0.3538104560945545 H
   0.9777032173818423    0.2556411345817946    0.3173279675150460 H
   0.9295984620406981    0.2141739203061962    0.3321503154231020 H
   0.0400667416300918    0.1994810788041209    0.3414469581611196 H
   0.0602560847328522    0.8216654138478242    0.2297835544920600 H
   0.1106061155645834    0.8979007113832209    0.2343941701109419 H
   0.1402658783416156    0.9370649178041898    0.1557004568196650 H
   0.1141862236570061    0.8935685001398074    0.0732941773620477 H
   0.0583009902426639    0.8323699338003262    0.0739576535421652 H
   0.9672567013674782    0.7359508168741988    0.1058915234573272 H
   0.9859262214806487    0.7912240947929946    0.0750888260459720 H
   0.0191555732888389    0.7529299619796718    0.1764505837140164 H
   0.6694065798541843    0.9301725984915337    0.4322844608802843 H
   0.6941579310094674    0.8559577890834088    0.3786556449858604 H
   0.6274072327614351    0.8055127660424362    0.3400018127764484 H
   0.5417363705611378    0.8395335156275535    0.3395399173373940 H
   0.5253863760020313    0.9131851012604448    0.3939884707417881 H
   0.5327085857303495    0.0007952676129989    0.4910896236676093 H
   0.5117627044869240    0.9439354489630654    0.4653481618446813 H
   0.6157408683666440    0.9904604200029778    0.4546153288376478 H
   0.6855758279226669    0.9037980383398880    0.6679174824160684 H
   0.7420954695491313    0.9334952919431040    0.7307000942643753 H
   0.7175777140991695    0.9181055926559396    0.8194924225944457 H
   0.6562269215423123    0.8598821987152251    0.8385617431658328 H
   0.5999234647611449    0.8297644337440401    0.7809187151040534 H
   0.5420998222641373    0.8210829438700846    0.6424642883039663 H
   0.5404490550981177    0.8272842155719935    0.7074925676165615 H
   0.6222710290543729    0.8486591207027405    0.6374809658472916 H
   0.6495473176393778    0.2732136437418975    0.5654140381408165 H
   0.6111019623490155    0.2574658924609357    0.4838211877311291 H
   0.5598842903260910    0.3218553339216135    0.4428946414328185 H
   0.5450056222568829    0.4005966322776974    0.4847586469436589 H
   0.5733323660633320    0.4084007858260797    0.5743129577260532 H
   0.6704312815118431    0.4144894854001213    0.6632858385903850 H
   0.6309271282962751    0.4345000889682947    0.6151809150895511 H
   0.6606873662446953    0.3310495716812103    0.6377702849684578 H
   0.1540654358155900    0.1647453146390974    0.3328460590240012 H
   0.1875991149479488    0.1779896070506466    0.2498361250090639 H
   0.2223791214770214    0.2520468154797570    0.2222601696758756 H
   0.2256342268489971    0.3220968192926840    0.2811953447900805 H
   0.1894446661104865    0.3133710268393742    0.3668316293234719 H
   0.1053248213573217    0.1979733385624903    0.4565151185555797 H
   0.0982298958975662    0.1750184291467396    0.3937346820390110 H
   0.1641227465631688    0.2561044959855327    0.4289228482343558 H
   0.8489927092023654    0.5469378565540584    0.0637879776665941 H
   0.9328521165076717    0.5731464636010735    0.0331629323471829 H
   0.9426384707461282    0.6541722498810731    0.0077188021173229 H
   0.8886466683593893    0.7215401319635849    0.0390363280400261 H
   0.8083535855489864    0.6955025619237488    0.0792219563483431 H
   0.7008462403424136    0.6266051514458257    0.1029693278224929 H
   0.7351782799521202    0.6810050875339078    0.0884707417881227 H
   0.7652283361746893    0.5689827474135646    0.0887245304908999 H
   0.4124440494758607    0.4144295679772242    0.9112102095569575 H
   0.4564888098951722    0.4521898910229176    0.9760967297512870 H
   0.5471623925423486    0.4636700329364258    0.9735842215937931 H
   0.5894395879429797    0.4410960893895323    0.9018925386121383 H
   0.5497301316696290    0.3949731097868757    0.8343046189543905 H
   0.4035681381261563    0.3341140755104783    0.7880273366688419 H
   0.3904214879030796    0.3560445785626356    0.8477807990718585 H
   0.4810744676992276    0.3695074787837853    0.7904129504749474 H
   0.0057383292828902    0.0598266389230842    0.6578529475745051 H
   0.9796401755595054    0.9871304638334806    0.6421289246610107 H
   0.0111574594653415    0.9133521437727642    0.6932753244869843 H
   0.0800246653850340    0.9293519113657905    0.7486085127982018 H
   0.1194457542892380    0.0071501457990624    0.7471340004350664 H
   0.0958540389567994    0.1645514000704484    0.7032463200638097 H
   0.0473502847401067    0.1345999513397900    0.6696443332608223 H
   0.1121730929667381    0.0841531126193356    0.7438909433688637 H
   0.5566056077478327    0.2652497103991227    0.7734631281270394 H
   0.5821603975479707    0.2799291158730333    0.6908197375099702 H
   0.5460818310421127    0.2457228038448829    0.6232626350518453 H
   0.4700378323479271    0.1927634278576072    0.6340356029294467 H
   0.4370550255722008    0.1778138492768149    0.7184888695526068 H
   0.4639689506329574    0.2311171149579308    0.8756254078747010 H
   0.5088339439225218    0.2688033582807695    0.8455931404539192 H
   0.4420036998077552    0.1897406846564190    0.8043869190051482 H
   0.0308534948674236    0.9858631195552313    0.8128601986802988 H
   0.0000181363125250    0.0611702417395663    0.7945750852004931 H
   0.9783778882077699    0.1202887656647748    0.8587002392864912 H
   0.9608364467336502    0.0842293711575683    0.9425241099267638 H
   0.9870252820196599    0.0001597797943925    0.9587013269523603 H
   0.0528129420726179    0.8794497764898560    0.9394097599883983 H
   0.0426638615836629    0.9370031847018109    0.9730150097889929 H
   0.0372302223511916    0.9206330184945113    0.8657602784424625 H
   0.9122456382168381    0.1874935997298269    0.7704705967660068 H
   0.8205248648844720    0.1968269185377244    0.7796628235805962 H
   0.7909253146650224    0.2235283009960818    0.8538365600754114 H
   0.8449265479342741    0.2483490026472608    0.9215684141831629 H
   0.9332039609706555    0.2501301842188403    0.9073127401928794 H
   0.0454314628749683    0.1903013664803780    0.7892915669639621 H
   0.9885233414342197    0.1717672734667495    0.7654546443332608 H
   0.0045195690812144    0.2314127075775568    0.8590783844536292 H
   0.7998034023722297    0.1831955232606699    0.0457689797694148 H
   0.8829990206391238    0.1998645503106628    0.0194764701616997 H
   0.9186078566505859    0.1579172703800945    0.9519976796461461 H
   0.8681054807936451    0.0995101296758286    0.8996374447103184 H
   0.7848902753092243    0.0822865941121147    0.9254948879704157 H
   0.6713536943668615    0.1142824979392039    0.0400768617214125 H
   0.7295861293481811    0.1380065291834164    0.0701254441302299 H
   0.7144658855961409    0.1071214580632510    0.9653868464940902 H
   0.1936497515325185    0.6831820872325052    0.3560590240011601 H
   0.1507961841198448    0.6153214297386511    0.3994539917337394 H
   0.0927128296274802    0.6367155810719047    0.4579892683634255 H
   0.0623889150857848    0.7274153076305746    0.4756579290841854 H
   0.1044542783561247    0.7941785684456694    0.4254310782394315 H
   0.1819830244114768    0.8277334146757741    0.2986523819882532 H
   0.1215169211795858    0.8210666027547489    0.3266579653397143 H
   0.2130160687728972    0.7638095134342126    0.3521535784207092 H
   0.8399706191737097    0.4209260691628629    0.2683065042418969 H
   0.7492778120352573    0.4303915694370305    0.2706888550503952 H
   0.6970405165221809    0.3590404497074940    0.2580302371111595 H
   0.7285302332329794    0.2852479673468202    0.2167163367413531 H
   0.8187482317095290    0.2840855693426152    0.2002265970560511 H
   0.9553629076136241    0.3165030739453626    0.1998698426510043 H
   0.9010265152889118    0.2803329229897705    0.2048096584729171 H
   0.9099604628386959    0.3847991313789361    0.2303618301791023 H
   0.4572722985962496    0.5404250142530841    0.0819048654919875 H
   0.3779705466284596    0.5728065684020931    0.1078674497860923 H
   0.3744169175523233    0.6340893822695267    0.1751435718947139 H
   0.4500652907250899    0.6634431093147989    0.2145239649046480 H
   0.5285426021981211    0.6285188776195715    0.1957595533318831 H
   0.6244731401211506    0.5652914710272025    0.1207780436516569 H
   0.6003007000616636    0.6145337879794758    0.1508052352983830 H
   0.5451351155283108    0.5299957149964231    0.1031651076789210 H
   0.4233595705321196    0.8158828378344029    0.9114313682836632 H
   0.3702459283978383    0.7910595942319494    0.8485026466536146 H
   0.4004610250643841    0.7601748862476806    0.7728601986802989 H
   0.4932059196924083    0.7529833429564348    0.7588354724095424 H
   0.5491410642388193    0.7743981930357799    0.8230867957363497 H
   0.5894040407704308    0.8247001405335920    0.9482597346095278 H
   0.5899194747723894    0.7991869387280802    0.8858784714668987 H
   0.5042036707896551    0.8421117804916135    0.9408563555942280 H
   0.3464311364213429    0.0227976715726326    0.8519918787615111 H
   0.2952149153034206    0.0511767418721109    0.9199622942498732 H
   0.2763440821212232    0.1396166737478167    0.9299796969037778 H
   0.3096427146432589    0.2018138638022508    0.8698353998984845 H
   0.3618582465813051    0.1733429201209969    0.8015006163439924 H
   0.4426402843773805    0.0379585952450986    0.7484410122543688 H
   0.4118295912075158    0.0150265633908178    0.8044380393009933 H
   0.3927628858500491    0.1110760079744643    0.7516612283373215 H
   0.1351663099858537    0.4594842017728295    0.7043158581683706 H
   0.1330298523704161    0.4524313763939880    0.6155985787832644 H
   0.2079302840146542    0.4628944109754194    0.5658001595243275 H
   0.2809739199825892    0.5010679826711550    0.6029588137190922 H
   0.2807352461097610    0.5067801829478646    0.6945083750271915 H
   0.2683104211251769    0.4805617349180585    0.8177093756797912 H
   0.2932159309369220    0.4580189484310713    0.7657765934304981 H
   0.1859204178606406    0.4907115647888911    0.7758784714668988 H
   0.5867659327505534    0.7953006583653801    0.5021897614386194 H
   0.6713199608255651    0.7893793644395544    0.4997720252338482 H
   0.7240908266531250    0.8601694392092353    0.5274765426727576 H
   0.6811690667053576    0.9354525944244115    0.5636219273439199 H
   0.6003518444629841    0.9321807399983295    0.5696958161119571 H
   0.4697609634009215    0.9041103352107460    0.5749238633891668 H
   0.5271166890347855    0.9209416840064059    0.6003911971575665 H
   0.5118839638724656    0.8406545161395750    0.5222880864331810 H
   0.2268421052631580    0.6847344931893862    0.8161014429700528 H
   0.1643327650622076    0.7443831955232608    0.7886128634616779 H
   0.1525394464797418    0.8203788233670686    0.8317902980204480 H
   0.2105981355870725    0.8457754585498533    0.8967841345805235 H
   0.2733878631796584    0.7857269435941013    0.9292219563483433 H
   0.3251673981646053    0.6576155044502304    0.9457653542165181 H
   0.2695774239181690    0.7002480218172048    0.9593503009208904 H
   0.3155627697776489    0.6854433344590547    0.8547085055470960 H
   0.2502996118829120    0.9509330776856623    0.6815408599811471 H
   0.2433856868221554    0.0204191314515632    0.7222014357189471 H
   0.2568279589393885    0.0250672709247982    0.8204386919005148 H
   0.2675737241104139    0.9502975898670561    0.8573167283010659 H
   0.2791004388987632    0.8749868363237574    0.8136019868029875 H
   0.2955482607276289    0.7847613652457160    0.7040443042563991 H
   0.2853396931335922    0.8029522948372971    0.7691951272569066 H
   0.2819587217526933    0.8649207092770327    0.6759469944166485 H
   0.8911567340128408    0.7121548847225099    0.6513073743745921 H
   0.9446443469113863    0.6357133259979882    0.6633732144151983 H
   0.9711995357103995    0.5882187821148310    0.5875752302226089 H
   0.9325764445572927    0.6067761158258255    0.5055401348705678 H
   0.8699698937212089    0.6670479593578307    0.5011867159741861 H
   0.7811280786390513    0.7662287247756727    0.5406921180480023 H
   0.7990434908774350    0.7111428249793922    0.5082511420491624 H
   0.8393946098879178    0.7591573794661175    0.6015771155101153 H
   0.7776934237730787    0.2977863235758718    0.6948234355739250 H
   0.7665617178715226    0.2936592841138940    0.7869081284895947 H
   0.7050778047807321    0.2418601273154453    0.8189025451381335 H
   0.6513863397294064    0.1947247248337746    0.7600264665361467 H
   0.6703775980267692    0.1890659781610072    0.6785914726995866 H
   0.7520312670027933    0.2036941814735329    0.5609633094046842 H
   0.7155620443251481    0.1750834304721856    0.6070952070190705 H
   0.7678156625194967    0.2697253603215932    0.6133373214415198 H
   0.9857412310928944    0.0930499420798246    0.5006349793343485 H
   0.8978091334469878    0.0888520911180592    0.5000151548111087 H
   0.8511338822590593    0.0197146478126510    0.5302034297730404 H
   0.8932532917407235    0.9473525577476860    0.5614788630266115 H
   0.9852189052921763    0.9476503291826901    0.5641965774780654 H
   0.1162900359098989    0.0305070466520687    0.5159449641070263 H
   0.0695201131705902    0.0603568173317501    0.4785001087665869 H
   0.0566324494903697    0.9920981628955006    0.5672351533608875 H
   0.1848420327179079    0.3655612809981880    0.9347291711986078 H
   0.1593521709166093    0.3274040504177879    0.8583590747589009 H
   0.0737422467263957    0.3382974010363900    0.8272837357697048 H
   0.0192462548514637    0.3944066177885751    0.8729171198607787 H
   0.0470310856396678    0.4401007338976466    0.9383909796243927 H
   0.1431832855743771    0.4917378594591455    0.0371981727213400 H
   0.0900866915738692    0.4927571092930108    0.9939417011094192 H
   0.1731237984692952    0.4234974344448923    0.0000507577405554 H
   0.0344735028474011    0.0936600103856867    0.0271155101152926 H
   0.0286698828394212    0.1435338206617063    0.0978826771082590 H
   0.0688780877072074    0.2248308694562767    0.0987564353563919 H
   0.1147629583952991    0.2559904713140799    0.0281741715611631 H
   0.1212920309042766    0.2095929609737853    0.9574831411790299 H
   0.0839421088904205    0.1126992254311332    0.8573805380320501 H
   0.1001378359751896    0.1742957887130102    0.8865963309404684 H
   0.0660306866407923    0.0814295933967369    0.9370422739467771 H
   0.3001603250027206    0.2091757178288831    0.7626655064897399 H
   0.3545961043200698    0.2792279004571881    0.7548934087448335 H
   0.3197032899270921    0.3616735480919025    0.7645442680008703 H
   0.2369465704233016    0.3759211849850569    0.7753882967152490 H
   0.1755975914976967    0.3043169595357670    0.7770886810238561 H
   0.1898044905509813    0.1347306802624747    0.7805615981437170 H
   0.2424331676883457    0.1644097770708733    0.8060169675875571 H
   0.1673934491639161    0.2129610464123990    0.7400170400986150 H
   0.7825068011171971    0.0218026792166433    0.3582321804075121 H
   0.8348540026841744    0.0000181567948173    0.4188608512798203 H
   0.8741376183394395    0.9208509000323192    0.4234283228192299 H
   0.8419949943777433    0.8574393835405024    0.3631078239431513 H
   0.7739305016504046    0.8758474683980987    0.3060445217895729 H
   0.6637270122238748    0.9943350800169949    0.2918156768907260 H
   0.7045166672712105    0.0016377428925227    0.3505989413385541 H
   0.7350752656969786    0.9446689834736856    0.2608244507287362 H
   0.4616003482172006    0.1387854556810796    0.4012352258719455 H
   0.4249356160905366    0.0513401530254668    0.3869759263287652 H
   0.3627890021400850    0.0229501886490982    0.4384555144659560 H
   0.3233693641408829    0.0759934490284299    0.5024562033210064 H
   0.3531502774855817    0.1633951753764812    0.5138714378942789 H
   0.4808557074975517    0.2589118996001874    0.4552983830034080 H
   0.4983352678733361    0.1978044803706892    0.4336320788920310 H
   0.4013928688019153    0.2312296870857981    0.4843830034080197 H
   0.1263738256737641    0.9612642939367200    0.9887789137843521 H
   0.1203344336029599    0.9791559995497117    0.0741570589514901 H
   0.1529435235227974    0.0534971802497650    0.1055217170618520 H
   0.1868888969494723    0.1153392233975721    0.0473968530200856 H
   0.1877732235481883    0.1032286412544167    0.9653723442825031 H
   0.1438993071928616    0.9834264776907463    0.8489471394387645 H
   0.1376401030142552    0.9505154714048640    0.9061344355014140 H
   0.1587696325583083    0.0551603426550319    0.8903233993183960 H
   0.5832337045231965    0.3120223401203434    0.1131861358857226 H
   0.5468272334868876    0.3525624684525691    0.0312087593357987 H
   0.4626185208023506    0.3636145094578745    0.0253353636429556 H
   0.4023319670644566    0.3341376793437408    0.0934993836560076 H
   0.4393304073415794    0.2913308567465203    0.1593060691755493 H
   0.5793586999891183    0.2711840772172170    0.2438035675440505 H
   0.5890888316587473    0.3227885931752240    0.1999699079109564 H
   0.5052304399869421    0.2476910004030809    0.2011942571242115 H
   0.1985367623054881    0.2625988183557934    0.5690867232252919 H
   0.2107559215060395    0.3180336917484631    0.6271042709013125 H
   0.1569219050382677    0.3300611157713552    0.6972046987165542 H
   0.0830135296891436    0.2721111631605896    0.7076977739105214 H
   0.0727701403750590    0.2159852421571725    0.6320451743890944 H
   0.0994160107366970    0.1226600430679173    0.5353762598796317 H
   0.0734303021509668    0.1472443432505747    0.5928765136683345 H
   0.1491878559251334    0.2006572759723872    0.5273563193386991 H
   0.5921019986216405    0.9169217696338503    0.9042092669132044 H
   0.5171642424462259    0.9282370841640069    0.9494380393009934 H
   0.5133766912111432    0.9816979508241369    0.0233956928431586 H
   0.5926616852261601    0.0192280457115467    0.0501776520919440 H
   0.6679643802822012    0.0077892649766322    0.9997824668261910 H
   0.7512786100330083    0.9857069711198021    0.8961387861648902 H
   0.7271899597373863    0.0144782281873346    0.9478101660503226 H
   0.6769904602996120    0.9332955672001134    0.8919222681458924 H
   0.8720737059741016    0.5992871642354718    0.9011964324559495 H
   0.9122202473793030    0.5439238286143825    0.9635160611993330 H
   0.9980630418223367    0.5310046517708322    0.9665905300558335 H
   0.0535891762486852    0.5672091916958083    0.9009498948589660 H
   0.0155899742464362    0.6257946321251804    0.8450355304183887 H
   0.9254234828974576    0.6634888644377387    0.7508588934812559 H
   0.9619173709601365    0.6138855904044972    0.7728424334711044 H
   0.8888280314846388    0.6611557163037123    0.8360528605612355 H
   0.6168932496644784    0.1723998561981851    0.4009411935320136 H
   0.6166763393666801    0.2049037871442630    0.3241095642085418 H
   0.5803971852442963    0.1661201471426653    0.2492828656370097 H
   0.5363952990677938    0.0844472526953762    0.2634990211007179 H
   0.5317955674852189    0.0489252993147626    0.3483282575592778 H
   0.5841281874569264    0.0902138507293585    0.5030688855050395 H
   0.6309554209438137    0.1140319341707248    0.4593223841635849 H
   0.5300587253799558    0.0666971700819598    0.4371220361105068 H
   0.4168341252856470    0.2877118444035313    0.5568979769414836 H
   0.4885749936522908    0.3354413372116247    0.5728612863461678 H
   0.4957295150350032    0.3892420990707353    0.6406852294974983 H
   0.4333798832021475    0.3924199012996634    0.6999902110071786 H
   0.3538514273277958    0.3474876443011268    0.6902146327314916 H
   0.2855482607276289    0.2603651694573661    0.5599778841273294 H
   0.3466103231890893    0.2812603720690395    0.5351273656732651 H