Bi6
1.0
   2.2455674800000001   -3.8894369800000002   -0.0000000000000000
   2.2455674800000001    3.8894369800000002    0.0000000000000000
   0.0000000000000000    0.0000000000000000   11.5106759099999998
Bi
6
direct
   0.3333333300000000    0.6666666700000000    0.9037927600000000 Bi
   0.0000000000000000    0.0000000000000000    0.7628739100000000 Bi
   0.0000000000000000    0.0000000000000000    0.2371260900000000 Bi
   0.6666666700000000    0.3333333300000000    0.0962072400000000 Bi
   0.6666666700000000    0.3333333300000000    0.5704594200000001 Bi
   0.3333333300000000    0.6666666700000000    0.4295405800000000 Bi
