Bi288 Se216
1.0
  17.7746670000000009    0.0000000000000000    0.0000000000000000
   0.0000000000000000   21.9862549999999999    0.0000000000000000
   0.0000000000000000    0.0000000000000000   41.6504580000000004
Bi Se
288 216
direct
   0.9974026517627588    0.6732933826156388    0.2960015469697836 Bi
   0.1185946268360471    0.8449278879008726    0.2924985842892772 Bi
   0.9845641552665937    0.3345544750572574    0.2922128731453565 Bi
   0.1108003879903910    0.4988207405035555    0.2923617310522732 Bi
   0.2326777767482226    0.6724383029306265    0.2933341093151965 Bi
   0.3591977278674194    0.8375323582847557    0.2921192367200380 Bi
  -0.0177626393788418    1.0101993268066798    0.2990843462033479 Bi
   0.1089364993448260    0.1711264606000431    0.2941552287372206 Bi
   0.2230354020134385    0.3434614034995955    0.2974036924155792 Bi
   0.3568792596789577    0.5022046728740297    0.2925369992329976 Bi
   0.4870110928097837    0.6744077151838729    0.2972764429145053 Bi
   0.6077188394021671    0.8345623208681970    0.2890076262786834 Bi
   0.2196052392992791    0.0115363894396749    0.2978910820140321 Bi
   0.3442247328740392    0.1711473827625487    0.2983904762823977 Bi
   0.4709292162829267    0.3431553031655459    0.2981167698083896 Bi
   0.6035556109152425    0.5064300400409255    0.2954877470975229 Bi
   0.7364919972903008    0.6693682029977366    0.2974060933495618 Bi
   0.8596560486899698    0.8339392042892253    0.2948587023941009 Bi
   0.4833671426868363    1.0105040626518704    0.2955981900607191 Bi
   0.6062392054939764    0.1766685595159339    0.2955477704470861 Bi
   0.7287337647450722    0.3433986370120787    0.2943953221354733 Bi
   0.8585308518016118    0.5012495306726862    0.2978574689382767 Bi
   0.7334764696295014    1.0103630654697673    0.2955477704470861 Bi
   0.8556447217829735    0.1722594411826844    0.2918167190382396 Bi
   0.1022483290404259    0.6067927439211453    0.0398648677524747 Bi
   0.2240188240938635    0.7773583996001138    0.0390240606717938 Bi
   0.1079952721477145    0.2759678717453245    0.0355559115340340 Bi
   0.2354958323551153    0.4453668894497949    0.0353403076624031 Bi
   0.3601749613649583    0.6116230344822253    0.0396338979033556 Bi
   0.4829570084210298    0.7832075085092937    0.0419013399564538 Bi
   0.1060104248366509    0.9414472814947338    0.0362536229493563 Bi
   0.2236379449471543    0.1073620768975890    0.0378641694648352 Bi
   0.3571403053570568    0.2778581436447453    0.0390096550678987 Bi
   0.4717674879647534    0.4456634383618310    0.0413030272080081 Bi
   0.5956679807278528    0.6080253321904981    0.0348817292717405 Bi
   0.7249924850912819    0.7760621351840047    0.0368284065447732 Bi
   0.3543323765221593    0.9389184288092720    0.0345019015157048 Bi
   0.4900856933072220    0.1129255528056052    0.0411664140644024 Bi
   0.6106443513118980    0.2759146566798211    0.0387357085004924 Bi
   0.7273947804479263    0.4449470817108234    0.0447344420558353 Bi
   0.8531524106752605    0.6089349914298728    0.0361575855900552 Bi
   0.9661390562197311    0.7742519132976489    0.0372413671897678 Bi
   0.6046751818191587    0.9425934521363460    0.0377318780023980 Bi
   0.7356030917484980    0.1157091100780920    0.0342601274636644 Bi
   0.8626772023352112    0.2722437268193242    0.0394173336581317 Bi
   0.9840465646979490    0.4446559907542235    0.0440187236356441 Bi
   0.8571749895511405    0.9414017985327652    0.0305794956684510 Bi
   0.9825219229142239    0.1096489602253772    0.0374584116217882 Bi
  -0.0070460954345868    0.6865061830675574    0.1652332370510788 Bi
   0.1039085570491982    0.7866005374721615    0.1335495518440638 Bi
  -0.0130283734710754    0.3516287789803220    0.1632210142803232 Bi
   0.1100189387514264    0.4554982192283315    0.1436627659652626 Bi
   0.2255637194215790    0.6870201405378042    0.1609523717602337 Bi
   0.3513326016177968    0.7820431446828938    0.1397430011453896 Bi
   0.9711068004818317    0.0174696873114589    0.1625641187427039 Bi
   0.1068627614795822    0.1107673862601885    0.1445160579026526 Bi
   0.2325736960360495    0.3509356186399185    0.1668942031801907 Bi
   0.3527064670184820    0.4436385368949828    0.1453009232215406 Bi
   0.4751307014640556    0.6874112940107353    0.1623540370192328 Bi
   0.6064867488094151    0.7749523509119675    0.1443587967267971 Bi
   0.2326676499762274    0.0188032022734204    0.1697335477079268 Bi
   0.3514738138272858    0.1161552979350053    0.1409785217727978 Bi
   0.4746648699522754    0.3413432619607114    0.1618411975205651 Bi
   0.5996117958215476    0.4442498279038427    0.1427398469423794 Bi
   0.7318843160324748    0.6814803157700118    0.1637417768611332 Bi
   0.8547276863189618    0.7730693562864617    0.1465546909472160 Bi
   0.4837992182919658    0.0222231571497738    0.1609977494125035 Bi
   0.6143068671835034    0.1201309636406928    0.1409573935537516 Bi
   0.7228489850189599    0.3502233554554880    0.1698185407709082 Bi
   0.8509639027274042    0.4424400608471066    0.1479959716169268 Bi
   0.7421348596854164    0.0143314539015398    0.1674814716323167 Bi
   0.8474307844979599    0.1156399759758995    0.1450044078746985 Bi
   0.1001222695198734    0.5854521381654129    0.1668140119851743 Bi
   0.2282793821116311    0.8191026620950226    0.1842327880284054 Bi
   0.1061972075201184    0.2466741152597384    0.1637705880689235 Bi
   0.2278568706800527    0.4852577212444775    0.1872498016708484 Bi
   0.3587757790342851    0.5873897123452811    0.1696982539783836 Bi
   0.4767791149055000    0.8231006144520748    0.1849468257948088 Bi
   0.1044930968327002    0.9153537062132682    0.1673263712970455 Bi
   0.2308645219626337    0.1549895605231541    0.1872474007368659 Bi
   0.3575149959208800    0.2419275133486808    0.1665729582133287 Bi
   0.4771374901144421    0.4844617694100246    0.1858414137966982 Bi
   0.6016596541583592    0.5790936200821832    0.1675441360092607 Bi
   0.7288856663250006    0.8147908773003861    0.1908519229248332 Bi
   0.3561388801264181    0.9180372009694239    0.1668113709577936 Bi
   0.4785501748077756    0.1528645965399746    0.1834476826161191 Bi
   0.6010576738230877    0.2458667926847933    0.1683237192733871 Bi
   0.7230627724277479    0.4885643325796049    0.1869007058697890 Bi
   0.8571187297067224    0.5772833981958273    0.1701801214286767 Bi
  -0.0141217835473373    0.8238465350283620    0.1822810687940094 Bi
   0.6058228826452838    0.9141302145363090    0.1713640219754606 Bi
   0.7265002489216816    0.1599376519557333    0.1884910845398147 Bi
   0.8576982061042269    0.2500757859853804    0.1680144789764377 Bi
   0.9841197024956924    0.4844936074834027    0.1892380151017787 Bi
   0.8558585091917615    0.9129067228593502    0.1684228778468655 Bi
  -0.0224835154436367    0.1482498952186264    0.1866675751800857 Bi
   0.0966347217644077    0.6194097175712735    0.6256881977144165 Bi
   0.2325961999738167    0.7939051011643410    0.6285381063516756 Bi
   0.1046134928997545    0.2890865224659679    0.6308886207205693 Bi
   0.2329658271516423    0.4594461403272180    0.6269078721775401 Bi
   0.3479941424500386    0.6198327091175828    0.6230231609938119 Bi
   0.4786053094553051    0.7904074613889450    0.6282115793300520 Bi
   0.0996896313162998    0.9588672559287610    0.6326845193394993 Bi
   0.2267446135559108    0.1282373919523812    0.6320722811739550 Bi
   0.3540820202144996    0.2930908424376957    0.6290807174317267 Bi
   0.4793867586942698    0.4557847618887346    0.6304756600755747 Bi
   0.6029255006577620    0.6285063099650213    0.6290158922141984 Bi
   0.7180837761967637    0.7982532723285525    0.6306461263883341 Bi
   0.3512257079134028    0.9603500004889418    0.6309414412681849 Bi
   0.4843004935057293    0.1299875763289382    0.6336953125461430 Bi
   0.6099973631010921    0.2830181856800987    0.6285453091536233 Bi
   0.7288125285272573    0.4599419046126773    0.6292751930843113 Bi
   0.8404714417434656    0.6202784421448765    0.6258274518854030 Bi
  -0.0153737338651689    0.7917492087670228    0.6292968014901541 Bi
   0.6062448314784181    0.9543144114356902    0.6291167314414646 Bi
   0.7277379654988755    0.1236222358014132    0.6352415140308902 Bi
   0.8558922650984123    0.2963055781896462    0.6295825126340748 Bi
   0.9873940254408141    0.4642855274806919    0.6286173371730991 Bi
   0.8352899100725769    0.9610868244728354    0.6274576860595387 Bi
  -0.0305736810709309    0.1314557663412891    0.6304780610095572 Bi
   0.1133866530382820    0.7318981791123590    0.3718638580156790 Bi
   0.2474836800036816    0.8915979551769959    0.3704305004281105 Bi
   0.1038219168887946    0.3897826164574185    0.3667882835766176 Bi
   0.2330417779416065    0.5629062339175089    0.3740847219495161 Bi
   0.3572725159914388    0.7275909426139194    0.3701880060958754 Bi
   0.4792371075081182    0.8931625690687204    0.3717077973068147 Bi
   0.1007433782022471    0.0638617172410672    0.3703176565309318 Bi
   0.2167539903841799    0.2288666259897377    0.3698638800082342 Bi
   0.3517866185622493    0.3941207813699969    0.3667642742367923 Bi
   0.4823274607619935    0.5614689723192967    0.3692252315688822 Bi
   0.6102055245254383    0.7280457722336069    0.3701039734064869 Bi
   0.7352036468531309    0.8867494714311283    0.3733284277450203 Bi
   0.3648450910500883    0.0510391606028403    0.3715541375319331 Bi
   0.4795684779917396    0.2364008786398593    0.3749178460414530 Bi
   0.6105318316230622    0.3915532681668615    0.3742599901302406 Bi
   0.7251612646245356    0.5601044834602346    0.3693620848058862 Bi
   0.8624746668953066    0.7282913802282380    0.3702120154357006 Bi
  -0.0150859085011269    0.9017224625112372    0.3741423443650968 Bi
   0.5991054572217864    0.0559308531625782    0.3684209186847358 Bi
   0.7202947880823872    0.2364627354681368    0.3716621795611468 Bi
   0.8524041547445024    0.3883116974673495    0.3656574436708475 Bi
  -0.0196613528681016    0.5617828047568810    0.3735036959257447 Bi
   0.8458048749942826    0.0531932336816798    0.3718758626855916 Bi
  -0.0235112702814629    0.2259543519348793    0.3735853276811506 Bi
   0.1040638342197916    0.5666039987255674    0.4757522714396082 Bi
   0.2265870859915407    0.8001226220654677    0.4936200221375717 Bi
   0.0979033812560314    0.2362271337251387    0.4773320860001107 Bi
   0.2328476814783647    0.4699072215800281    0.4931278306711538 Bi
   0.3605389625583422    0.5643525921081148    0.4813320420150002 Bi
   0.4791966004201372    0.8050529751428790    0.4916896712156202 Bi
   0.1066748535992264    0.9009765419349498    0.4757690779774859 Bi
   0.2210516798992634    0.1441841732482408    0.5001577653719919 Bi
   0.3511525701156596    0.2390598125965518    0.4792984509318001 Bi
   0.4938944847743139    0.4706713353411029    0.5048828034496043 Bi
   0.6129228750108230    0.5691010133376512    0.4813560513548255 Bi
   0.7353049145730832    0.8079684330050751    0.4972574371210996 Bi
   0.3550918844218010    0.9013085675573217    0.4769383328269763 Bi
   0.4819240776775170    0.1375231934679189    0.4943811182100327 Bi
   0.6013502250140608    0.2342176964653598    0.4745614081842749 Bi
   0.7349335995999250    0.4750422479862987    0.5030965085666045 Bi
   0.8538669106993678    0.5704745987891071    0.4778290793344938 Bi
   0.9808228756128035    0.8030153384466795    0.4958384851374264 Bi
   0.6052040243566870    0.9020726813183965    0.4768711066754656 Bi
   0.7300671230577765    0.1415029526401836    0.4956704197586495 Bi
   0.8598867140520833    0.2389938623016971    0.4757378658357130 Bi
  -0.0197313963744018    0.4751013758368581    0.4979369014381547 Bi
   0.8546151666301259    0.9052246505828301    0.4753153014547883 Bi
  -0.0197954200773494    0.1427264443171427    0.4959297206287623 Bi
   0.1059069067229220    0.7006741257208197    0.4955911889372261 Bi
   0.2298715357086577    0.9401646619672154    0.5204048416466394 Bi
   0.0944732185418720    0.3735911368261671    0.4980833584110888 Bi
   0.2228542453144129    0.6084528720330042    0.5203136061553032 Bi
   0.3555352119958141    0.7036623563221658    0.5049092137234121 Bi
   0.4808354496880307    0.9446856683869080    0.5170747462128749 Bi
   0.1014477514543592    0.0340076561469882    0.4988300488796545 Bi
   0.2247243225428640    0.2877743390131698    0.5191419503718302 Bi
   0.3607088672884842    0.3777282670468436    0.5076774906052653 Bi
   0.4909560331003670    0.6187456663265299    0.5173100377431624 Bi
   0.6165291310380104    0.7073055415758618    0.5068371637113810 Bi
   0.7260276662285713    0.9422841679949587    0.5199702725958020 Bi
   0.3440385127890160    0.0383923501296606    0.4973630782163308 Bi
   0.4792241677439021    0.2707946396510001    0.5237013240046484 Bi
   0.6110044143161726    0.3693030031717544    0.5051517080556474 Bi
   0.7362500799593039    0.6089258948374792    0.5262054981484238 Bi
   0.8564773674803584    0.7042490865315626    0.4988948740971828 Bi
  -0.0265019873508741    0.9419794321497681    0.5173508536208653 Bi
   0.6037862762773559    0.0379938284168905    0.4966211896157300 Bi
   0.7315523829504091    0.2770085219151693    0.5165897575484044 Bi
   0.8649782299719033    0.3679134986836094    0.5006499568384098 Bi
  -0.0189822402861331    0.6097263949681290    0.5192547942690090 Bi
   0.8518415563003233    0.0391282644543148    0.5062513358196445 Bi
  -0.0227587948623735    0.2709802101358326    0.5273579464600365 Bi
   0.0978904414918153    0.7174436937986938    0.9662654850037903 Bi
   0.2150622568625336    0.8869359515752000    0.9629930119856065 Bi
   0.1125545699393412    0.3851679151360703    0.9636052501511508 Bi
   0.2364128678191271    0.5576029205519539    0.9665920120254140 Bi
   0.3492296086334557    0.7176756569047343    0.9607697471177868 Bi
   0.4842599864177483    0.8889508467904151    0.9679653462634193 Bi
   0.1035822499515743    0.0553468519308995    0.9600230566492211 Bi
   0.2486803268944504    0.2211436190474458    0.9635788398773431 Bi
   0.3607279956355863    0.3938547060424797    0.9636436650948713 Bi
   0.4844141383914534    0.5546283348391984    0.9608273695333676 Bi
   0.6011983234341324    0.7154015088062974    0.9593339885962359 Bi
   0.7350067373976683    0.8949000182159262    0.9576269245346594 Bi
   0.3499469216497839    0.0450005241911367    0.9598237791286713 Bi
   0.4773569035076718    0.2261822215743427    0.9625224289250314 Bi
   0.6090803276370803    0.3867952955153117    0.9613387684716457 Bi
   0.7358393830950533    0.5619192536427873    0.9606304929468003 Bi
   0.8510426665095893    0.7177120432743094    0.9597445483072479 Bi
   0.9825613048053166    0.8891418752306839    0.9622319159131455 Bi
   0.6073025165534748    0.0565007546760465    0.9588249905919402 Bi
   0.7324075325855612    0.2282307741814147    0.9615332441242302 Bi
   0.8650738717074137    0.3832394375485957    0.9647576984627637 Bi
   0.9855655804972324    0.5692192690387700    0.9612787451220826 Bi
   0.8592791077323699    0.0474537387108446    0.9564552687511864 Bi
   0.9791632102024752    0.2251483938487933    0.9623975803579399 Bi
  -0.0201252152853271    0.6829812535149802    0.7035961045134246 Bi
   0.1065578331228371    0.8379780913120493    0.7052167349516301 Bi
   0.9758495053662609    0.3479478428681920    0.7082010958919107 Bi
   0.1056047913583979    0.5102778986234808    0.7021123273122232 Bi
   0.2265268879580135    0.6806434292697869    0.7020306955568172 Bi
   0.3588624191946887    0.8389104920324085    0.7009718836705229 Bi
   0.9800521157442782    0.0025216663774708    0.7061122833271125 Bi
   0.1054663921411298    0.1795981170963404    0.7047317462871597 Bi
   0.2229932071301252    0.3533139227212638    0.7074784147631702 Bi
   0.3537590887075409    0.5146715527496610    0.6984533039228524 Bi
   0.4746395530222873    0.6806798156393620    0.7017641918847567 Bi
   0.5932319294645576    0.8444093821344290    0.7078673660683396 Bi
   0.2223315913597706    0.0194969993752915    0.7055624694451139 Bi
   0.3610756814740890    0.1826372886150916    0.7067773420402724 Bi
   0.4812258930082909    0.3555189367175083    0.7070390438443678 Bi
   0.6002587840323534    0.5113785863031244    0.7041963380090563 Bi
   0.7232484299143269    0.6858466801190107    0.7056296955966247 Bi
   0.8528936153909381    0.8457966124744756    0.7047701612308801 Bi
   0.4714912521286615    0.0107351615816336    0.7055480638412187 Bi
   0.6044895243325796    0.1752003695035830    0.7097569011125880 Bi
   0.7305847136264213    0.3482957875272528    0.7059418170143531 Bi
   0.8515771350315593    0.5199430280418379    0.7039298343369957 Bi
   0.7259038945708518    0.0121139775737159    0.7071422840056165 Bi
   0.8513127137627952    0.1746109103164682    0.7097280899047977 Bi
   0.1088487339875341    0.6851780805780703    0.8109850796838778 Bi
   0.2318890137294836    0.9278251343850965    0.8404085256397421 Bi
   0.1085488690167866    0.3450974256416111    0.8058542837632182 Bi
   0.2312093948089154    0.5898821786611681    0.8297843927670615 Bi
   0.3463209746770502    0.6908407093431783    0.8144928442323491 Bi
   0.4742457341113620    0.9283936714097057    0.8267496122131478 Bi
   0.1104701427036580    0.0171835539977136    0.8118302084457271 Bi
   0.2395921116271827    0.2479285353508362    0.8276955802022634 Bi
   0.3560044190982594    0.3467975787600026    0.8133091837789634 Bi
   0.4706316017059560    0.5977234413045787    0.8338083581217762 Bi
   0.5998593391369864    0.6923643885691311    0.8124760596870269 Bi
   0.7236197448874850    0.9205114741005234    0.8306199177929808 Bi
   0.3488605440540742    0.0221456541825791    0.8149226114152214 Bi
   0.4897672625878167    0.2553395291740226    0.8306319224628935 Bi
   0.6123265206599933    0.3620798539814989    0.8108266180410308 Bi
   0.7254200599088579    0.5888588120168714    0.8308047897096354 Bi
   0.8519765799269263    0.6862378335919419    0.8157533345731757 Bi
  -0.0241764304220158    0.9178780106025334    0.8309296382767268 Bi
   0.6064867488094151    0.0177975739842915    0.8101807667997313 Bi
   0.7303427962954243    0.2564943415784089    0.8300268870992967 Bi
   0.8540750721237140    0.3509501731877484    0.8128001857746678 Bi
   0.9900551160817809    0.5905871645716835    0.8304638570841165 Bi
   0.8611413085826024    0.0151410961075454    0.8128001857746678 Bi
   0.9796976787244452    0.2566835507001988    0.8348791746779831 Bi
   0.9849917300841697    0.7280002892716382    0.8538225438001187 Bi
   0.1087142729593753    0.8241876572431276    0.8315178671024458 Bi
   0.9943196122886578    0.3931210658659239    0.8510494650503002 Bi
   0.1116600384130966    0.4839705534207622    0.8277772119576693 Bi
   0.2266967926881556    0.7292192326524004    0.8565355992003738 Bi
   0.3509061519971091    0.8240011770990558    0.8324854434974041 Bi
   0.9840296867446237    0.0533255891010088    0.8565043870586009 Bi
   0.1142361766889923    0.1501005969411344    0.8361564715566875 Bi
   0.2283260777824980    0.3842509786227805    0.8528093496594924 Bi
   0.3535469890940854    0.4844617694100246    0.8384421607080528 Bi
   0.4757737514857522    0.7260763599803605    0.8548117286009196 Bi
   0.5992967406928074    0.8269757628118112    0.8343845822775826 Bi
   0.2339053665534212    0.0611409264560972    0.8611333877769123 Bi
   0.3712187688241924    0.1549418034130869    0.8346486850156606 Bi
   0.4794165764118113    0.3903547921189853    0.8557384891181750 Bi
   0.5951728940969753    0.4920528757626071    0.8334098030806768 Bi
   0.7204748195845244    0.7328669662022932    0.8553615424829182 Bi
   0.8499737294656491    0.8215041624869720    0.8384853775197382 Bi
   0.4893734436768913    0.0577847386924240    0.8545620314667368 Bi
   0.6095191544235400    0.1533985665134876    0.8389775689861563 Bi
   0.7300108632133586    0.3907022819484264    0.8582618707338104 Bi
   0.8604324345429369    0.4859308690816148    0.8325766789887401 Bi
   0.7340165641359132    0.0567741072774786    0.8529101888867584 Bi
   0.8567417887491227    0.1505067597915152    0.8383749345565420 Bi
   0.9708029973219752    0.6665209695784934    1.0023299143553237 Se
   0.0962465288379242    0.8300504110408981    1.0011822679116757 Se
   0.9827919701674299    0.3343411599656240    1.0003011251400884 Se
   0.1064886335142031    0.4990299621286117   -0.0013899727105042 Se
   0.2326136405255862    0.6621455086371008    0.0031731223699869 Se
   0.3565180714777948    0.8270803736243394    1.0009301698435105 Se
   0.9846260410954535    1.0005114559073385    0.9976961117690470 Se
   0.1039186838211934    0.1590621049378350    0.0032621249927192 Se
   0.2336088771733389    0.3323030684398048   -0.0000289072451496 Se
   0.3670133454539542    0.5034008747738076    0.0004756490312784 Se
   0.4783262606269924    0.6621318637485102    0.9975400510601830 Se
   0.6088271583371998    0.8359450029120467    0.0006457311946005 Se
   0.2327644169086262    0.9971775547950299   -0.0027026833654506 Se
   0.3570806699219738    0.1625297259583317    1.0010262072028115 Se
   0.4775611267429089    0.3348446563546179    1.0035735981582725 Se
   0.6107512450162920    0.5028960138959546   -0.0026432362400433 Se
   0.7318280561880568    0.6659296910728998    0.9998617542212862 Se
   0.8582889344706148    0.8295864848288169    0.9951823338893417 Se
   0.4832444962260053    1.0014393083315007    1.0046540184504094 Se
   0.6010689257919712    0.1705365465833085   -0.0007316366124954 Se
   0.7323625247100269    0.3341610474362278    0.0024200214076878 Se
   0.8494505129125626    0.4945226005975097    0.0039852382895766 Se
   0.7227814732056584    1.0034132688809441    0.9960058542453483 Se
   0.8600554935853369    0.1661542631976205    0.0000022808872834 Se
   0.1011478864836118    0.7276409738720852    0.0719545508959349 Se
   0.2293033112800369    0.8923848104190550    0.0704328389378095 Se
   0.1154001928699986    0.3906886370598358    0.0726011224174294 Se
   0.2365203241219652    0.5566386817582167    0.0738042304360735 Se
   0.3526395178036247    0.7230744844904237    0.0731982346988837 Se
   0.4751920246944710    0.8936128503922111    0.0766767078527684 Se
   0.1120094120469317    0.0546664268198472    0.0754363853573951 Se
   0.2229684527985813    0.2203062777176013    0.0755898050388786 Se
   0.3531070371107374    0.3876853970810399    0.0714059374809276 Se
   0.4812247678114027    0.5547465905403171    0.0732460132851360 Se
   0.5944471421039843    0.7141461790559601    0.0701447268599063 Se
   0.7325481821966060    0.8849801842105443    0.0740673728005584 Se
   0.3497376350285494    0.0458745702712900    0.0702983866347880 Se
   0.4878324865382851    0.2267389330288401    0.0744536830783469 Se
   0.5945315318706111    0.3880488059471701    0.0758875208527119 Se
   0.7339378003537281    0.5631200038387620    0.0748971355849196 Se
   0.8388792881464390    0.7142053069065195    0.0730049595132903 Se
  -0.0243834103896292    0.8959688678221917    0.0712289886464154 Se
   0.6259188990713582    0.0621733896927876    0.0729802298932703 Se
   0.7404245604151122    0.2249591847270033    0.0732373699227989 Se
   0.8573437690843941    0.3792605880355704    0.0747458767440204 Se
  -0.0181033489966366    0.5635020607192994    0.0772020322081452 Se
   0.8498499578079297    0.0506038886567994    0.0654115256067532 Se
  -0.0068896368072606    0.2219313839487443    0.0733871882033086 Se
   0.1171549374173930    0.7358870348770176    0.2564221502678314 Se
   0.2284194691242317    0.9010311214893124    0.2615649508584035 Se
   0.1102096596240031    0.3873133464521357    0.2589719421572748 Se
   0.2316015259245082    0.5572799915219758    0.2611543911473915 Se
   0.3540628918673976    0.7267495078174978    0.2586286085977734 Se
   0.4798025189445181    0.9013085675573217    0.2594545298877626 Se
   0.1000795120381158    0.0540364877965802    0.2605805679255676 Se
   0.2269432108067060    0.2359460490201719    0.2633608494773335 Se
   0.3569237049560479    0.3930787667112930    0.2566598427321015 Se
   0.4836816352171323    0.5661901037716518    0.2601267914028701 Se
   0.6036793825729618    0.7165704209288940    0.2585325712384723 Se
   0.7323231428189344    0.8920937194624551    0.2624124805542355 Se
   0.3428621194422377    0.0579839540658470    0.2577498667601686 Se
   0.4704746367400300    0.2312808616110383    0.2633320382695432 Se
   0.5983909571976792    0.3971949747694639    0.2561580475297535 Se
   0.7417860486500254    0.5608458557403250    0.2635673297998308 Se
   0.8623902771286798    0.7241342375042953    0.2662875880020335 Se
   0.9865445017901038    0.8992572859725315    0.2648254192066747 Se
   0.5987060123264194    0.0580394432794489    0.2548351329053813 Se
   0.7354230602463607    0.2279701568093338    0.2619563030975554 Se
   0.8526967059354754    0.3919335057289202    0.2568135025069833 Se
   0.9847779426753819    0.5551422923094452    0.2644076566937151 Se
   0.8639599267879393    0.0561760063275897    0.2573729201249120 Se
  -0.0144844907642995    0.2233358978143390    0.2574137360026149 Se
   0.1063778016206998    0.6206786922102013    0.3313024793148733 Se
   0.2354030036118258    0.7831893153245062    0.3343636701425948 Se
   0.0987146482125375    0.2815636405563385    0.3309207308116516 Se
   0.2379481989732916    0.4518218314123983    0.3337634366469632 Se
   0.3547177564564220    0.6171992456195928    0.3327238322325292 Se
   0.4859078372607487    0.7856408469746211    0.3311008008603411 Se
   0.1075300032343785    0.9558017042920680    0.3366277508881175 Se
   0.2193515074009544    0.1180173703980055    0.3363420397441969 Se
   0.3463620443634753    0.2873745437774646    0.3335929703342038 Se
   0.4886898865672138    0.4496090853126192    0.3356625754271418 Se
   0.6140649498525064    0.6222705958791072    0.3334008956156017 Se
   0.7272878867435323    0.7816110565441908    0.3309663485573196 Se
   0.3563729210791966    0.9478421859475387    0.3320083539057362 Se
   0.4808917095324486    0.1211334081224838    0.3344284953601231 Se
   0.6017046620338935    0.2900248359713830    0.3345893579369524 Se
   0.7250374929668162    0.4521570408421079    0.3321356034068101 Se
   0.8668629347599031    0.6145930718987841    0.3358594520137090 Se
  -0.0126446813321454    0.7920402997236229    0.3343972832183502 Se
   0.6040450715616783    0.9456453588844485    0.3333264666621433 Se
   0.7262133237151503    0.1237136565549704    0.3338162571945788 Se
   0.8488485325772910    0.2839533153781761    0.3318450903949244 Se
  -0.0130274733135647    0.4447028382050513    0.3289591677479273 Se
   0.8572537533333254    0.9478876689095073    0.3330287508483100 Se
  -0.0181410993522410    0.1211042990268238    0.3303877234675306 Se
  -0.0121907769073817    0.6742758145941635    0.4059235074918024 Se
   0.1130440305857769    0.8482117577550156    0.4074432987027417 Se
   0.9798270763666065    0.3425230899941805    0.4032872819789881 Se
   0.1082219993207186    0.5036555793608325    0.4012801011695958 Se
   0.2331452960553354    0.6734980559444981    0.4067014101021410 Se
   0.3603544302686514    0.8348352186400094    0.4017338776922933 Se
   0.9790788204358484    0.0059750512308713    0.4078754668195966 Se
   0.0974831202182297    0.1677607214143564    0.4026342279357408 Se
   0.2238792996797071    0.3438448248689920    0.4027350671630070 Se
   0.3576955900214615    0.4993528911585897    0.4048382853317003 Se
   0.4794717110593408    0.6684539954621649    0.4062020158337755 Se
   0.6050802526989676    0.8347124146426937    0.4077146042427673 Se
   0.2316549727767052    0.0023631127720478    0.4054769337710524 Se
   0.3474495471560733    0.1626834583697860    0.4039499397581655 Se
   0.4753861211577128    0.3479896871932032    0.4095609224753303 Se
   0.6078988709043044    0.5043696618637417    0.4028022933145177 Se
   0.7373752768476619    0.6676716885163025    0.4030591932506481 Se
   0.8593860014367639    0.8304597576986168    0.4049079124171936 Se
   0.4909402803439299    0.0013475237142478    0.4068766782828655 Se
   0.6000787525302161    0.1703746272386998    0.4047158376985915 Se
   0.7386805052381572    0.3415147327273335    0.4075633454018681 Se
   0.8443871269149514    0.4974471550520996    0.4035249744432582 Se
   0.7260051622908041   -0.0016165554342929    0.4058370738684315 Se
   0.8424124063758831    0.1665117592786948    0.4063340672028145 Se
   0.9725189225767212    0.6773777526004315    0.5913836529720754 Se
   0.1028587483523601    0.8526008635849989    0.5949994595497605 Se
   0.9833770725493760    0.3462349545204492    0.5937581766807942 Se
   0.1041831050899575    0.5096002024901467    0.5890619498109722 Se
   0.2237302110919996    0.6710692657753674    0.5933068010920792 Se
   0.3572725159914388    0.8524416732181084    0.5910067063368187 Se
  -0.0328175487056945    0.0182311175777776    0.5986992988168341 Se
   0.0962521548223660    0.1781945128899851    0.5942023494675617 Se
   0.2243541327665942    0.3452093137280542    0.5963127704382026 Se
   0.3541022737584901    0.4966512032176466    0.5907786176084787 Se
   0.4808894591386720    0.6792107159677716    0.5948986203224944 Se
   0.6045682881147647    0.8460058340995318    0.5931795515910053 Se
   0.2255817225717928    0.0259352490908524    0.5978325616491420 Se
   0.3566834754203834    0.1714512089484999    0.5934196449892580 Se
   0.4817153536547267    0.3435132540762399    0.5992203014910424 Se
   0.6093109929991937    0.5087269296203469    0.5946345175844165 Se
   0.7257013591309475    0.6881253765136446    0.5922047723940995 Se
   0.8375796857403855    0.8376779037630556    0.5927209732003428 Se
   0.4719537080497767    0.0131723206157665    0.5959286210009983 Se
   0.6041800951882812    0.1798305350320007    0.5962695536265172 Se
   0.7293807529558781    0.3488756952923542    0.5980990653212025 Se
   0.8578557336685970    0.5046198181545697    0.5888722760263525 Se
   0.7229052448633777    0.0266313658237840    0.5919598771278818 Se