Bi54 Se81
1.0
  12.5739999999999998    0.0000000000000000    0.0000000000000000
   0.0000000000000000   10.8900000000000006    0.0000000000000000
   0.0000000000000000    0.0000000000000000   29.9280000000000008
Bi Se
54 81
direct
   0.9192985500000000    0.8093195600000000    0.0910204500000000 Bi
   0.9448186700000000    0.5066088200000000    0.6398860600000000 Bi
   0.7821806900000000    0.3171037600000000    0.3812459900000000 Bi
   0.3782058200000000    0.0029522500000000    0.2444971300000000 Bi
   0.3498759300000000    0.2915840200000000    0.2450260600000000 Bi
   0.7714164100000001    0.5395629000000000    0.2570008000000000 Bi
   0.7982678500000000    0.5370642799999999    0.5234436000000000 Bi
   0.5464633400000000    0.9459614300000000    0.5972971800000000 Bi
   0.7145880400000000    0.4607686000000000    0.0773082100000000 Bi
   0.5967401000000000    0.1976832000000000    0.4430052100000000 Bi
   0.2642349300000000    0.7316060599999999    0.6131906600000000 Bi
   0.0755201200000000    0.8183774100000000    0.5360271300000000 Bi
   0.0938754600000000    0.5108034900000000    0.3096665300000000 Bi
   0.5112040700000000    0.2496281000000000    0.7880048800000000 Bi
   0.9327445500000000    0.1580000000000000    0.4897042900000000 Bi
   0.6433163700000000    0.7670523400000000    0.2081485600000000 Bi
   0.4752751700000000    0.5479412299999999    0.9937122400000000 Bi
   0.8408628900000000    0.1465335200000000    0.7530540000000000 Bi
   0.6435907400000001    0.7678319600000000    0.3704039700000000 Bi
   0.5580841400000000    0.4555775900000000    0.2045649600000000 Bi
   0.3579847300000000    0.4264830100000000    0.0909873700000000 Bi
   0.2607587100000000    0.7503700599999999    0.3421408000000000 Bi
   0.5864172100000000    0.1732975200000000    0.2540256600000000 Bi
   0.0460497900000000    0.5291065200000000    0.1548867300000000 Bi
   0.2393788800000000    0.7248622600000000    0.1972163200000000 Bi
   0.5942325400000000    0.5609779600000000    0.6314057100000000 Bi
   0.5101487200000000    0.0854912800000000    0.0902071600000000 Bi
   0.9240679200000000    0.8964664800000000    0.2648252500000000 Bi
   0.7127246699999999    0.7906216700000001    0.4745385600000000 Bi
   0.2741410800000000    0.1174618900000000    0.5056776300000000 Bi
   0.0866740900000000    0.1406556500000000    0.3680860700000000 Bi
   0.0397518700000000    0.6741854900000001    0.3953170900000000 Bi
   0.4588571700000000    0.3594921900000000    0.5129848299999999 Bi
   0.0875099400000000    0.8133544500000000    0.7378762400000000 Bi
   0.2575767500000000    0.4839357200000000    0.3980867400000000 Bi
   0.5147319900000000    0.6311882500000000    0.2884973900000000 Bi
   0.1207332600000000    0.3665289300000000    0.7540386900000000 Bi
   0.9536424400000000    0.1996813600000000    0.2502235400000000 Bi
   0.5774542700000000    0.9235041300000000    0.7094356500000000 Bi
   0.3820105000000000    0.8123847600000000    0.4706799700000000 Bi
   0.7800175000000000    0.0114444400000000    0.4018942100000000 Bi
   0.6011356800000000    0.8186372800000000    0.0548389500000000 Bi
   0.1425815200000000    0.4706721800000000    0.5312516700000000 Bi
   0.7043057100000000    0.1888622600000000    0.6082551500000000 Bi
   0.1381302700000000    0.1442139600000000    0.1276737500000000 Bi
   0.2431994600000000    0.7797281900000000    0.0892602200000000 Bi
   0.4389772500000000    0.1498053300000000    0.3433751000000000 Bi
   0.3323055500000000    0.2744995400000000    0.6375133700000000 Bi
   0.8087370800000000    0.9031772300000001    0.6298706900000000 Bi
   0.7728956600000000    0.5522828300000000    0.7624589000000001 Bi
   0.8449451200000000    0.1247190100000000    0.1522958400000000 Bi
   0.3888889800000000    0.5817447200000000    0.7272387100000000 Bi
   0.6198473000000000    0.5172874200000001    0.4422413800000000 Bi
   0.0709376500000000    0.1380422400000000    0.6462035600000000 Bi
   0.8820065200000000    0.2708264500000000    0.6591526300000000 Se
   0.4220614000000000    0.6652727300000000    0.1197296800000000 Se
   0.0371218400000000    0.8924435300000000    0.6411818400000000 Se
   0.9805272800000000    0.3098393000000000    0.4198740300000000 Se
   0.3083943100000000    0.7976437100000000    0.6960425000000000 Se
   0.3192047100000000    0.5405023000000000    0.4819473400000000 Se
   0.7850119300000000    0.6387419700000000    0.6059449300000000 Se
   0.3819715300000000    0.3488438900000000    0.9458971500000000 Se
   0.1204135500000000    0.9967832900000000    0.0487172500000000 Se
   0.6844218200000000    0.1547621700000000    0.9386220300000000 Se
   0.9672093200000000    0.9235629000000000    0.3590447100000000 Se
   0.7727302400000000    0.2911937600000000    0.2874535600000000 Se
   0.1948902500000000    0.8972865000000000    0.2668768400000000 Se
   0.8764362999999999    0.9271799800000000    0.5305045400000000 Se
   0.0370971800000000    0.6111579400000000    0.8944286299999999 Se
   0.2212844000000000    0.3564315900000000    0.1602666400000000 Se
   0.3609145900000000    0.1055895300000000    0.9846107300000000 Se
   0.8491760800000000    0.4014701600000000    0.1602489300000000 Se
   0.0506179400000000    0.4619954100000000    0.9972066300000000 Se
   0.3083155700000000    0.7516730900000000    0.9972918300000000 Se
   0.2440814400000000    0.9415234200000000    0.8028822500000000 Se
   0.9740536000000000    0.5715206600000000    0.7245282000000000 Se
   0.7612955300000001    0.2762461000000000    0.5227930400000000 Se
   0.7125163000000000    0.6740486700000000    0.8545933600000000 Se
   0.8093749000000000    0.8978209400000000    0.7268033300000000 Se
   0.8798409400000000    0.3592745600000000    0.0259663200000000 Se
   0.8946699500000000    0.1489494900000000    0.9943040000000000 Se
   0.5491649400000000    0.8886042199999999    0.9438833200000000 Se
   0.4065834300000000    0.0062736500000000    0.9174926500000000 Se
   0.3996174600000000    0.8355206600000000    0.8422905000000001 Se
   0.5198481000000000    0.3439155200000000    0.6011547699999999 Se
   0.4695276000000000    0.4901680400000000    0.8238682800000000 Se
   0.0620844600000000    0.6315390300000000    0.0693761700000000 Se
   0.4662915500000000    0.7096317700000000    0.5778889300000000 Se
   0.3378877000000000    0.3366418700000000    0.7235866100000000 Se
   0.5047995900000000    0.1707511500000000    0.8852576200000000 Se
   0.7565277600000000    0.3659632700000000    0.9073332700000000 Se
   0.9754103700000000    0.6409816300000000    0.2426593800000000 Se
   0.5321170700000000    0.5971588600000000    0.8888970200000000 Se
   0.6796222400000000    0.6165197400000000    0.9991118700000000 Se
   0.4730873200000000    0.4476721800000000    0.3631679400000000 Se
   0.1733632900000000    0.4982185500000000    0.6201563800000000 Se
   0.1838547800000000    0.9160303000000000    0.4654400600000000 Se
   0.9910330800000000    0.4489568400000000    0.8444022300000000 Se
   0.9368371200000000    0.2979412300000000    0.9059689900000000 Se
   0.7303348200000001    0.7099348000000000    0.1177452600000000 Se
   0.8278018100000000    0.6577566600000000    0.9310418300000000 Se
   0.0970470800000000    0.2218301200000000    0.5433757700000000 Se
   0.6408446000000000    0.0267263500000000    0.1692251400000000 Se
   0.6120017500000000    0.2343572100000000    0.0042064300000000 Se
   0.8224431400000000    0.5757006400000000    0.3571344600000000 Se
   0.5397494800000000    0.3344288300000000    0.1209613100000000 Se
   0.2166732900000000    0.5993057899999999    0.7949642500000000 Se
   0.8960171800000000    0.1060697900000000    0.8532568200000000 Se
   0.8229425800000000    0.0342938500000000    0.0586952000000000 Se
   0.5540408800000000    0.9637474700000001    0.5001670700000000 Se
   0.2158907300000000    0.8315877000000000    0.9366543000000001 Se
   0.6817806600000000    0.8955610700000000    0.8653622000000000 Se
   0.8415261700000000    0.8802745600000000    0.9441469500000000 Se
   0.5952735800000000    0.6488172600000000    0.7148813800000000 Se
   0.3299785300000000    0.0390808100000000    0.5970552700000000 Se
   0.1481859400000000    0.0789146000000000    0.9749081100000000 Se
   0.5390281500000000    0.9350688700000001    0.8028722300000000 Se
   0.0032066200000000    0.9477933900000000    0.1650868800000000 Se
   0.9861229500000001    0.9451019300000000    0.8934432600000000 Se
   0.3253976500000000    0.0123461900000000    0.1422624300000000 Se
   0.6292142500000000    0.1809779600000000    0.7142478600000000 Se
   0.1739653300000000    0.3319072500000000    0.0325641500000000 Se
   0.4298019700000000    0.8804095500000000    0.3819807500000000 Se
   0.7207253100000000    0.3416115700000000    0.8217301500000000 Se
   0.1283688600000000    0.2662708900000000    0.2903261200000000 Se
   0.1947081300000000    0.0598200200000000    0.8649218100000000 Se
   0.2409464000000000    0.2557245200000000    0.8386073200000000 Se
   0.0609137900000000    0.1155234200000000    0.7404721300000000 Se
   0.9829926800000000    0.7916418700000000    0.8380984400000000 Se
   0.0017090800000000    0.6204958699999999    0.4900578100000000 Se
   0.2756099900000000    0.2151349900000000    0.4061277100000000 Se
   0.7072920300000000    0.9283039500000000    0.2878942800000000 Se
   0.2482750100000000    0.6071395800000000    0.8747821400000000 Se
   0.2971950100000000    0.5612011000000000    0.2618821800000000 Se
   0.2041856200000000    0.3531157000000000    0.9139648500000001 Se
