Bi2 Se6
1.0
   5.3962205318121308   -0.0116747688526650   -0.7808830068171450
  -0.9003666997492069    5.3205897998223266   -0.7808830068171450
  -0.0098869541486453   -0.0116747688526650    5.4524191328360443
Bi Se
2 6
direct
   0.5000000000000000    0.5000000000000000    0.5000000000000000 Bi
   0.0000000000000000   -0.0000000000000000   -0.0000000000000000 Bi
   0.7093481300000000    0.7093481300000000    0.0719414300000000 Se
   0.7093481300000000    0.0719414300000000    0.7093481300000000 Se
   0.2906518700000000    0.9280585700000000    0.2906518700000000 Se
   0.2906518700000000    0.2906518700000000    0.9280585700000000 Se
   0.9280585700000000    0.2906518700000000    0.2906518700000000 Se
   0.0719414300000000    0.7093481300000000    0.7093481300000000 Se
