Bi54 Se81
1.0
  12.5739999999999998    0.0000000000000000    0.0000000000000000
   0.0000000000000000   10.8900000000000006    0.0000000000000000
   0.0000000000000000    0.0000000000000000   29.9280000000000008
Bi Se
54 81
direct
   0.7605073999999999    0.4620844800000000    0.0392725900000000 Bi
   0.0942245900000000    0.8808898100000000    0.9602021500000000 Bi
   0.8574089400000000    0.6750073500000000    0.7296130700000000 Bi
   0.2400421500000000    0.9028145100000000    0.4064986000000000 Bi
   0.7773365700000000    0.0697933900000000    0.7174391900000000 Bi
   0.8363830100000000    0.1848760300000000    0.8164407900000000 Bi
   0.4620884400000000    0.3845500500000000    0.0029784800000000 Bi
   0.0241959600000000    0.9051928400000000    0.7559579700000000 Bi
   0.6006195300000000    0.7537300300000001    0.5476266400000001 Bi
   0.3926841100000000    0.2582874200000000    0.3942625600000000 Bi
   0.4050914600000000    0.6988402200000000    0.6308804500000000 Bi
   0.4722689700000000    0.7780642800000001    0.8409960600000000 Bi
   0.5811921400000000    0.9722699700000000    0.4092321600000000 Bi
   0.8899443300000000    0.9938356300000000    0.4017856200000000 Bi
   0.1508414200000000    0.0113737400000000    0.5585638900000000 Bi
   0.7304946700000000    0.3625730000000000    0.7382675100000000 Bi
   0.9193558100000000    0.1034334300000000    0.5926647300000000 Bi
   0.5406672500000000    0.4501680400000000    0.8258864600000000 Bi
   0.2953737900000000    0.2681689600000000    0.7828251100000000 Bi
   0.6452982300000000    0.6373195600000000    0.8979761400000000 Bi
   0.7981390200000000    0.4820587700000000    0.8345104900000000 Bi
   0.6493629700000000    0.1094527100000000    0.0277556100000000 Bi
   0.6822824900000000    0.5283764900000000    0.4881552400000000 Bi
   0.0727859100000000    0.3101652900000000    0.5591285800000000 Bi
   0.1901861000000000    0.7373957799999999    0.6955436400000000 Bi
   0.4924988100000000    0.6172240600000000    0.4098700200000000 Bi
   0.5222268200000000    0.0755234200000000    0.8283440300000000 Bi
   0.4676857000000000    0.9743792500000000    0.6039982600000000 Bi
   0.6465110500000000    0.1812424200000000    0.6280693700000000 Bi
   0.0918896100000000    0.1225932000000000    0.8259469400000000 Bi
   0.8300731700000000    0.8549614300000000    0.0224057700000000 Bi
   0.9916931800000000    0.3468916400000000    0.8879474100000000 Bi
   0.6849809100000001    0.8493783300000000    0.6398068700000000 Bi
   0.6406704300000000    0.5424857700000000    0.6225123600000000 Bi
   0.4675775400000000    0.4751065200000000    0.5462520000000000 Bi
   0.3234126000000000    0.2663764900000000    0.5881485600000000 Bi
   0.0253928700000000    0.5891202900000000    0.9558480400000000 Bi
   0.9770598100000000    0.1781965100000000    0.0244820900000000 Bi
   0.7300087500000000    0.8677107400000000    0.8411514300000000 Bi
   0.8210362700000000    0.3925326000000000    0.5686835099999999 Bi
   0.1531915100000000    0.5780220400000000    0.6040273300000000 Bi
   0.0580117700000000    0.3933204800000000    0.7836009800000000 Bi
   0.1863885800000000    0.2708650100000000    0.9698509800000000 Bi
   0.2694091000000000    0.9227125800000000    0.7815560700000000 Bi
   0.0604087800000000    0.2580156100000000    0.3695241900000000 Bi
   0.2395983800000000    0.6775472900000000    0.0057173900000000 Bi
   0.7187028800000000    0.3120257100000000    0.4083467000000000 Bi
   0.1710680800000000    0.5656170800000000    0.3893350700000000 Bi
   0.8402043900000000    0.6784600600000000    0.4213669500000000 Bi
   0.2730435800000000    0.5574343400000000    0.7713983599999999 Bi
   0.3438738700000000    0.0418696100000000    0.0059943900000000 Bi
   0.0678837300000000    0.8218944000000000    0.4816947300000000 Bi
   0.5306537300000000    0.7578411400000000    0.0366419400000000 Bi
   0.9702028000000000    0.8388292000000001    0.6462677100000001 Bi
   0.7319246100000000    0.6355647400000000    0.2950170400000000 Se
   0.2426880900000000    0.0477520700000000    0.9241837100000000 Se
   0.9083298900000000    0.0191202900000000    0.9534683200000000 Se
   0.9109432200000001    0.7866804400000000    0.2813101400000000 Se
   0.5497113100000000    0.3604894400000000    0.6812550100000000 Se
   0.4128328300000000    0.2746501400000000    0.8641833700000000 Se
   0.6806473700000000    0.8419136800000000    0.7327726500000000 Se
   0.3336448200000000    0.4689871400000000    0.4496347900000000 Se
   0.7971894400000000    0.2321267200000000    0.0862616900000000 Se
   0.8575950400000000    0.8768071600000000    0.4792528700000000 Se
   0.9035883600000000    0.5106694200000000    0.2200982400000000 Se
   0.6905638600000000    0.9286005500000000    0.2547624300000000 Se
   0.5118323500000000    0.8750156100000001    0.2536607900000000 Se
   0.2563909700000000    0.9418135900000000    0.1701376600000000 Se
   0.9246866600000000    0.7390192799999999    0.8195322100000000 Se
   0.5491466500000000    0.1273076200000000    0.1707147200000000 Se
   0.7238030900000000    0.0826014700000000    0.1748342700000000 Se
   0.8371409300000000    0.4731753900000000    0.3480276000000000 Se
   0.9215762700000000    0.2247989000000000    0.4412927700000000 Se
   0.0285652900000000    0.9276345300000000    0.0529550900000000 Se
   0.2629990500000000    0.4356547300000000    0.0470556000000000 Se
   0.5594870400000000    0.5231101900000000    0.0778444900000000 Se
   0.4368506400000000    0.8313856700000000    0.4581188200000000 Se
   0.8319086999999999    0.7843783300000000    0.1710431700000000 Se
   0.3057046300000000    0.0627888000000000    0.2745589400000000 Se
   0.1922824900000000    0.8973094600000000    0.2806081300000000 Se
   0.0246810900000000    0.5760156100000000    0.4601560400000000 Se
   0.3240257700000000    0.7162194700000000    0.3472878200000000 Se
   0.4869333500000000    0.6228255300000000    0.7631498900000000 Se
   0.6988285400000001    0.0883489400000000    0.8805466500000000 Se
   0.3293415000000000    0.8467438000000000    0.0684282300000000 Se
   0.6748982000000000    0.9072121200000000    0.0856422100000000 Se
   0.7162247500000000    0.0972396700000000    0.3482077000000000 Se
   0.0655670400000000    0.9989357200000000    0.3428588600000000 Se
   0.9659495800000000    0.3852405900000000    0.2838469000000000 Se
   0.3223286100000000    0.6799697000000000    0.2271775600000000 Se
   0.1380221100000000    0.2230422400000000    0.2243307300000000 Se
   0.6655471600000000    0.3197805300000000    0.9687804100000000 Se
   0.9861205700000000    0.0840045900000000    0.6866803700000000 Se
   0.8076546800000000    0.6394389300000000    0.9711454200000000 Se
   0.1633259100000000    0.3552295700000000    0.6428033900000000 Se
   0.2376149200000000    0.3665124000000000    0.3300631500000000 Se
   0.7435986999999999    0.1657024800000000    0.5459693300000000 Se
   0.4155917000000000    0.0253094600000000    0.3480546600000000 Se
   0.3870844600000000    0.3565978000000000    0.2357421100000000 Se
   0.0270256100000000    0.6784288300000000    0.3255529900000000 Se
   0.6635422300000000    0.4186914600000000    0.1771381300000000 Se
   0.9603491300000000    0.3758650100000000    0.1621267700000000 Se
   0.4229195200000000    0.0807897200000000    0.7459185400000000 Se
   0.6123500900000000    0.6174380200000000    0.1961454200000000 Se
   0.2523469100000000    0.7299494900000000    0.8428528500000000 Se
   0.4819977700000000    0.9036455500000000    0.1727639700000000 Se
   0.5506640699999999    0.4134609700000000    0.3524562300000000 Se
   0.2700723700000000    0.1523654700000000    0.1611190200000000 Se
   0.5532543300000000    0.1890798900000000    0.4580907500000000 Se
   0.9313257500000000    0.4424068000000000    0.7039428000000000 Se
   0.4651749600000000    0.5662396700000000    0.2613886700000000 Se
   0.9606752000000000    0.6835757600000000    0.5714675200000000 Se
   0.1802719900000000    0.5452773200000000    0.2397450500000000 Se
   0.0287887700000000    0.0485142300000000    0.2252532700000000 Se
   0.1541562000000000    0.1778613400000000    0.1021144100000000 Se
   0.4380085900000000    0.6210707100000000    0.9644125900000000 Se
   0.2070335600000000    0.1569596000000000    0.4367228000000000 Se
   0.3575163000000000    0.0737043200000000    0.5285856100000000 Se
   0.2699960200000000    0.0491992700000000    0.6421404700000000 Se
   0.4556147600000000    0.1899687800000000    0.0683918100000000 Se
   0.4208398300000000    0.3894876000000000    0.1606351900000000 Se
   0.5322482900000000    0.9505739200000000    0.9696414700000000 Se
   0.9882257000000000    0.4481974300000000    0.0466549700000000 Se
   0.3601200900000000    0.6322369100000000    0.1520378900000000 Se
   0.1830006400000000    0.4639963300000000    0.9101450100000000 Se
   0.8840544000000000    0.1325895300000000    0.2601263000000000 Se
   0.6488094500000000    0.7576758500000000    0.3542475300000000 Se
   0.3091251800000000    0.6664683200000000    0.5486280400000000 Se
   0.5403451600000000    0.1967043200000000    0.2566760200000000 Se
   0.1446787000000000    0.4633774100000000    0.1513502400000000 Se
   0.0965158300000000    0.6757015600000000    0.1197844800000000 Se
   0.0445379400000000    0.7574646500000000    0.1882427800000000 Se
   0.8199061600000001    0.6379118499999999    0.1167201300000000 Se
   0.9696015600000000    0.0525197400000000    0.1528204400000000 Se
   0.6875632300000000    0.3377594100000000    0.2561310500000000 Se
