Nb10 Se8
1.0
   9.9825572244364693    0.0000000000000000    0.0000000000000006
   0.0000000000000016    9.9825572244364693    0.0000000000000006
   0.0000000000000000    0.0000000000000000    3.4658552531373252
Nb Se
10 8
direct
   0.1950518549999989    0.1264399050000000    0.5000000000000000 Nb
   0.3735600950000000    0.6950518549999989    0.0000000000000000 Nb
   0.6264399050000000    0.3049481450000011    0.0000000000000000 Nb
   0.8049481450000011    0.8735600950000000    0.5000000000000000 Nb
   0.0000000000000000    0.0000000000000000    0.0000000000000000 Nb
   0.6950518549999989    0.6264399050000000    0.0000000000000000 Nb
   0.8735600950000000    0.1950518549999989    0.5000000000000000 Nb
   0.1264399050000000    0.8049481450000011    0.5000000000000000 Nb
   0.3049481450000011    0.3735600950000000    0.0000000000000000 Nb
   0.5000000000000000    0.5000000000000000    0.5000000000000000 Nb
   0.4410526299999991    0.2189799300000000    0.5000000000000000 Se
   0.2810200700000001    0.9410526299999991    0.0000000000000000 Se
   0.7189799299999999    0.0589473700000009    0.0000000000000000 Se
   0.5589473700000009    0.7810200700000001    0.5000000000000000 Se
   0.9410526299999991    0.7189799299999999    0.0000000000000000 Se
   0.7810200700000001    0.4410526299999991    0.5000000000000000 Se
   0.2189799299999999    0.5589473700000009    0.5000000000000000 Se
   0.0589473700000009    0.2810200700000001    0.0000000000000000 Se
