Bi8 Se4
1.0
   0.0000000000000000    4.2689130000000004    0.0000000000000000
  11.8597959999999993    0.0000000000000000    0.0000000000000000
   0.0000000000000000   -1.9936110000000002   -7.2247820000000003
Bi Se
8 4
direct
   0.4660279999999996    0.6379630000000001    0.0270020000000011 Bi
   0.0339720000000004    0.1379630000000001    0.9729979999999989 Bi
   0.5339720000000004    0.3620369999999999    0.9729979999999989 Bi
   0.9660279999999997    0.8620369999999999    0.0270020000000011 Bi
   0.8239520000000006    0.6238190000000000    0.6685810000000011 Bi
   0.6760479999999994    0.1238190000000000    0.3314189999999989 Bi
   0.1760479999999994    0.3761810000000000    0.3314189999999989 Bi
   0.3239520000000006    0.8761810000000000    0.6685810000000011 Bi
   0.3538220000000006    0.1111920000000010    0.6517750000000001 Se
   0.1461779999999994    0.6111920000000008    0.3482249999999999 Se
   0.6461779999999994    0.8888079999999990    0.3482249999999999 Se
   0.8538220000000005    0.3888079999999990    0.6517750000000001 Se
