Bi12 Se9
1.0
   2.1363683600000001   -3.7002985399999999    0.0000000000000000
   2.1363683600000001    3.7002985399999999   -0.0000000000000000
  -0.0000000000000000    0.0000000000000000   39.5240241799999978
Bi Se
12 9
direct
   0.5521290400000000    0.3285228300000000    0.1726437600000000 Bi
   0.2187957100000000    0.6618561600000000    0.9315778700000000 Bi
   0.5521290400000000    0.3285228300000000    0.0298243300000000 Bi
   0.2187957100000000    0.6618561600000000    0.0743973000000000 Bi
   0.2187957100000000    0.6618561600000000    0.5059770900000000 Bi
   0.8854623700000001    0.9951894900000000    0.2649112100000000 Bi
   0.2187957100000000    0.6618561600000000    0.3631576700000000 Bi
   0.8854623700000001    0.9951894900000000    0.4077306300000000 Bi
   0.8854623700000001    0.9951894900000000    0.8393104200000000 Bi
   0.5521290400000000    0.3285228300000000    0.5982445400000000 Bi
   0.8854623700000001    0.9951894900000000    0.6964910000000000 Bi
   0.5521290400000000    0.3285228300000000    0.7410639600000000 Bi
   0.5521290400000000    0.3285228300000000    0.8854441500000000 Se
   0.8854623700000001    0.9951894900000000    0.9701756700000000 Se
   0.8854623700000001    0.9951894900000000    0.1340459600000000 Se
   0.2187957100000000    0.6618561600000000    0.2187774800000000 Se
   0.5521290400000000    0.3285228300000000    0.3035090000000000 Se
   0.5521290400000000    0.3285228300000000    0.4673792900000000 Se
   0.8854623700000001    0.9951894900000000    0.5521108100000000 Se
   0.2187957100000000    0.6618561600000000    0.6368423300000000 Se
   0.2187957100000000    0.6618561600000000    0.8007126300000000 Se
