Bi144 Se216
1.0
  16.8710670000000000    0.0000000000000000    0.0000000000000000
   0.0000000000000000   22.0584039999999995    0.0000000000000000
   0.0000000000000000    0.0000000000000000   29.9286870000000000
Bi Se
144 216
direct
   0.1423081302445186    0.6352000806586007    0.7168573749994446 Bi
   0.2514843904063685    0.7975327680098706    0.7102349662048322 Bi
   0.1588696198053152    0.3017126715060618    0.7393040663628178 Bi
   0.2799425786169896    0.4642402958981076    0.7132220668417563 Bi
   0.3901424847640045    0.6164770579050053    0.7244220235922814 Bi
   0.5056319200202334    0.8012275049455073    0.7218258522333439 Bi
   0.1665146608688117    0.9853206061508348    0.7566686771123639 Bi
   0.2582278880168041    0.1327729784983537    0.7344458512329660 Bi
   0.3979493413190760    0.2962072868009852    0.7217055663016557 Bi
   0.5396054677513875    0.4542849065598762    0.7455221807759225 Bi
   0.6253961293615868    0.6362473005753272    0.7202287223625948 Bi
   0.7544395384121229    0.8029139370191968    0.7193031889437717 Bi
   0.3883601434337259    0.9657679676190535    0.7340081440926560 Bi
   0.5184028965091538    0.1336773956991630    0.7335938258835077 Bi
   0.6576406815289157    0.2849149920365952    0.7496319501086033 Bi
   0.7755111161611770    0.4665931406460775    0.7271986238487509 Bi
   0.9110567814116320    0.6367187762088318    0.7263800112580950 Bi
   0.0332586551876061    0.7756816857647543    0.7204425640189295 Bi
   0.6383947144540414    0.9667562530815919    0.7210072396426881 Bi
   0.7439541316503573    0.1235860037743438    0.7531870676451660 Bi
   0.8837496762949255    0.2939292434756385    0.7324945461189126 Bi
   0.0268484500713559    0.4716524368671460    0.7539622436493790 Bi
   0.8659558995290576    0.9399410764260188    0.7486763452068580 Bi
   0.9951652731863373    0.1325680679345614    0.7491441238300899 Bi
   0.1873983429738024    0.6056376517539529    0.9623208662645307 Bi
   0.3053197524495635    0.7935660259010578    0.9499715106112073 Bi
   0.1383854382179859    0.2922079040713916    0.9743962372956757 Bi
   0.2867951386832854    0.4211623832803135    0.9787966976299363 Bi
   0.4072984832553863    0.5880434504690366    0.9644358938967154 Bi
   0.5415555518806250    0.7645838746991850    0.9597982029749585 Bi
   0.1142393661290065    0.9479652290347025    0.9669685810139284 Bi
   0.2642559596260272    0.1071854518577137    0.9363223986404751 Bi
   0.3882955357832436    0.2717408748157845    0.9769757022752118 Bi
   0.5325187790434357    0.4447950994097306    0.9461524322801065 Bi
   0.6564255835152571    0.5933838187023867    0.9705337223781318 Bi
   0.7892031962175243    0.7686548854577149    0.9361787237776252 Bi
   0.4212732958739361    0.9575488779695938    0.9219582536313738 Bi
   0.5351949583271763    0.1088279097617398    0.9514416719985077 Bi
   0.6304343406377321    0.2890027764474710    0.9755723664055160 Bi
   0.8037428812297408    0.4660083295237498    0.9647566563812172 Bi
   0.9358981266567195    0.6070702123326783    0.9386579504807545 Bi
   0.0351615579500692    0.7646065417969495    0.9329744402084863 Bi
   0.6426860849998403    0.9608265403063612    0.9318818429956517 Bi
   0.7651916740061550    0.1212499326787196    0.9386913632395569 Bi
   0.8827005428880105    0.2954424989224061    0.9651876809697667 Bi
   0.0569394929200388    0.4559396046966951    0.9541046688750496 Bi
   0.8751076621294906    0.9516554325507866    0.9495872638849810 Bi
   0.0145041804409881    0.1265839541246955    0.9637175195824662 Bi
   0.1611871969923420    0.7208998438871642    0.0511044804605027 Bi
   0.2830129238417463    0.8951554246626364    0.0768924477041041 Bi
   0.1411653453809412    0.3899448028968913    0.0667346349006223 Bi
   0.2827218930492066    0.5652584837960172    0.0849245407925847 Bi
   0.4347425091726563    0.7322469930281448    0.0591546164387365 Bi
   0.5409148099524469    0.9199260290998388    0.0614310276959360 Bi
   0.1571003185512807    0.0511428660024542    0.0556399283403245 Bi
   0.2570074554265003    0.2122660370170027    0.0737259205524118 Bi
   0.3938369754562648    0.3924168765791034    0.0705897990112296 Bi
   0.5097851843039921    0.5429767266933727    0.0812691849796151 Bi
   0.6643918846389502    0.7166066955705408    0.0631377514155566 Bi
   0.7657784774371412    0.8880606230623032    0.0531703913372478 Bi
   0.4030693494371162    0.0451029004636963    0.0584165285967941 Bi
   0.5159229110998136    0.2279793225294087    0.0612893575986143 Bi
   0.6507412957342887    0.4041792869511321    0.1069612576054539 Bi
   0.8468344059092410    0.5662739697758732    0.0701427362984551 Bi
   0.9401065148991465    0.7019818840927929    0.0799199777791789 Bi
   0.0073830540771369    0.8973541331458069    0.0726112709187677 Bi
   0.6344767642734155    0.0726299146574702    0.0558835073519931 Bi
   0.7746457292831568    0.2316436855540410    0.0667266158385097 Bi
   0.9031319714396250    0.4045832146332980    0.0663584072365086 Bi
   0.0881710682554933    0.5500397943568356    0.0957305611168308 Bi
   0.9061786074348468    0.0567955868430010    0.0798404554132295 Bi
   0.0290727314401632    0.2180234798492221    0.0648965990389087 Bi
   0.1441011407280879    0.7147706606516047    0.2828984779719872 Bi
   0.2985987786071859    0.8795287274636914    0.2528296680706374 Bi
   0.1671340644904083    0.3856802151234514    0.2990291555389650 Bi
   0.2599331743510946    0.5732055682723011    0.3005754980163347 Bi
   0.4107345433457172    0.7348446424319728    0.2745900613682117 Bi
   0.5414233729259684    0.8779102966832959    0.2508212271390322 Bi
   0.1879584735215621    0.0467078216538241    0.2727125984511115 Bi
   0.2804635889360169    0.2145789876729069    0.2758062857886148 Bi
   0.3930160433836224    0.3603746671790035    0.2951763303214738 Bi
   0.5085528970989208    0.5850105927881274    0.2870443330841744 Bi
   0.6465210528770943    0.7336704867677643    0.2652485222622696 Bi
   0.7620502010927940    0.8987186924312385    0.2649417931364647 Bi
   0.4254212255810495    0.0470627884048184    0.2503945462091270 Bi
   0.5468812375648796    0.2480968251374850    0.2753959771105228 Bi
   0.6493068873474332    0.4016936130102613    0.2899786415621908 Bi
   0.7650079274772602    0.5518667624366658    0.2697619177212819 Bi
   0.9060600612871728    0.7152874704806386    0.2765460442684973 Bi
   0.0589155386556167    0.8682269125182402    0.2833672589779833 Bi
   0.6635205704535463    0.0695771099305281    0.2750548328431515 Bi
   0.7797491409405226    0.2216361618909510    0.2849436729382749 Bi
   0.8853619039032918    0.4117269771648030    0.2859888240336103 Bi
   0.0458390094710666    0.5530499849399803    0.3045589671207428 Bi
   0.9242687495698998    0.0513432431466937    0.2783456554575883 Bi
   0.0532428683971203    0.2115116760033953    0.2902770174982952 Bi
   0.0290818594935341    0.6636155544163576    0.4102585589538225 Bi
   0.1491274973894657    0.8193294492203516    0.4097607088476685 Bi
   0.0216443334615410    0.3328572638346818    0.4000142071050428 Bi
   0.1758009733468547    0.5051090731677595    0.4092595174656343 Bi
   0.2748450942670075    0.6509401133463690    0.4210174672881574 Bi
   0.4216200433558825    0.8542503800365611    0.3821617700769834 Bi
   0.0436735862645795    0.9858374159798686    0.3951392855957898 Bi
   0.1713673474238470    0.1576673452893509    0.4231358361962221 Bi
   0.2782556669355886    0.3287109983115732    0.4137602160763017 Bi
   0.3965670932371971    0.5045831964996198    0.3796157178562494 Bi
   0.5274669349603081    0.6833087289542797    0.4022127666342329 Bi
   0.6630582404776176    0.8207937437359475    0.3806414895514795 Bi
   0.2569837461969655    0.9941063732444105    0.4092327872585924 Bi
   0.3581373958149772    0.0605420047615412    0.5074696394131825 Bi
   0.5349975789912992    0.3251567973820771    0.4067268303484213 Bi
   0.6634909339166277    0.4963731736892660    0.4027005929127463 Bi
   0.7759438096001871    0.6537009658541026    0.3867159291017344 Bi
   0.8755403555685007    0.8093151254279322    0.3943741334192176 Bi
   0.5293215894406679    0.0072080917549611    0.3597952693347357 Bi
   0.6508776238041138    0.1413520216603159    0.3778381590879680 Bi
   0.7957884347208152    0.3253843750436342    0.3932982425857840 Bi
   0.8941461734459355    0.5087630093274200    0.4215821429119159 Bi
   0.7686117303665500    0.9894777518808704    0.3766352997710859 Bi
   0.8974595382734240    0.1743671028964743    0.3867560244122972 Bi
  -0.0001149304901699    0.6772656806902257    0.5958296800658178 Bi
   0.1412015019559818    0.8722299219834762    0.6120582570160864 Bi
   0.0504631983264603    0.3517280760657027    0.6234520077676645 Bi
   0.1421907695583213    0.5204274978371055    0.5978478106974757 Bi
   0.2739625181975746    0.7115383325103666    0.6188343645011892 Bi
   0.4080702186767440    0.8561181488923677    0.6266028309227197 Bi
   0.9926461675482646    0.0138223508826840    0.6265560530603965 Bi
   0.1510200866370811    0.1917106060801135    0.6138224506808468 Bi
   0.2904273926480169    0.3599498857668941    0.6083828535478354 Bi
   0.4140004897141360    0.5249563839704813    0.6099432293839019 Bi
   0.5019528403271707    0.6917590230009387    0.5812082568139392 Bi
   0.6588202156982721    0.8397978385018244    0.5937848192271182 Bi
   0.2579398208779563    0.0294893501814546    0.6344748768965375 Bi
   0.3755067773721721    0.1911253416158304    0.6199202791622633 Bi
   0.5389825077453606    0.3438988604977948    0.6124090909835104 Bi
   0.6349331669419604    0.4971121210763934    0.6345584087935431 Bi
   0.7132269701732558    0.6693911309267887    0.6189513091569971 Bi
   0.8797131799666256    0.8255538342665226    0.6004372995046526 Bi
   0.5305384656465414    0.0120577173217065    0.6153761439651529 Bi
   0.5711802341843583    0.2172369315567890    0.5362513898454684 Bi
   0.7579544316906571    0.3464203484531337    0.6246247956016246 Bi
   0.8795887065115680    0.5336832166098689    0.6353202196942351 Bi
   0.7960610908604654    0.0200081111942641    0.6166759002825617 Bi
   0.8776564043044818    0.1872891619901422    0.6349994572097333 Bi
   0.0457012588474695    0.6623144630046671    0.9998300292959729 Se
   0.1757600749259071    0.8362073702159050    0.0288712632131172 Se
   0.0248860371427604    0.3384406233560687    0.0254683742056576 Se
   0.1941471751608834    0.5073712495246709    0.0257292610263858 Se
   0.2848735056294898    0.6392620245780248    0.0222983387142911 Se
   0.4009307769330772    0.8401786457442706    0.0107108941999360 Se
   0.0064432202183774    0.0175832304095981    0.0057118108789737 Se
   0.1515114604191899    0.1543357352599037    0.0155695436956523 Se
   0.2795673800596014    0.3195117833547704    0.0302180312821608 Se
   0.3967692144189813    0.5008068580120303    0.0211482047307989 Se
   0.5438873546053726    0.6593224060997341    0.0181972566988990 Se
   0.6479258247270312    0.8407589234470454    0.0050208016141837 Se
   0.2948355311492747    0.0131395725638174   -0.0005301602439158 Se
   0.3981307169250172    0.1457149846380545    0.0087219997322302 Se
   0.5266430392339737    0.3481507546964867    0.0287031636235830 Se
   0.6078750087353691    0.4863180491208702    0.0298815982137806 Se
   0.8268712346409388    0.6643817023208025    0.0081189996741254 Se
   0.9033394271980545    0.8334283840299598    0.9996429178466800 Se
   0.5213973721993991    0.9857694146865748    0.9855995353220808 Se
   0.6754344582947837    0.1746916957364640    0.0064699463761975 Se
   0.7662408074130700    0.3603782939146459    0.0271898997774276 Se
   0.9432242785829728    0.5064056311598971    0.0172189979466857 Se
   0.7600823350414054    0.0254765938641798    0.0022888073907151 Se
   0.8998363885342877    0.1843442526485597    0.0257563253610157 Se
   0.1961387504418067    0.7175677805157618    0.8850572028101334 Se
   0.2498460826455137    0.8964882500111975    0.8841015979083882 Se
   0.1986685252331699    0.3879414847964522    0.9142165174168851 Se
   0.2803794211711683    0.5360315279382860    0.8944662356888561 Se
   0.4374127611490133    0.6713541015932067    0.9006208658602365 Se
   0.5372884832950992    0.8922087019532330    0.8749932798588860 Se
   0.1351858776922645    0.0414251185171874    0.8991139504382536 Se
   0.2700315279407046    0.2148042986246874    0.9107148602944058 Se
   0.4121837700010319    0.3988638525253232    0.8738004443696445 Se
   0.5398615274303635    0.5529457162902629    0.8909612372904966 Se
   0.6271743215766968    0.7021541540358043    0.9008948504824151 Se
   0.7601653173447772    0.8828517239959881    0.8740644051641826 Se
   0.4097369775130405    0.0587422371990285    0.8783145080838328 Se
   0.5393345898039524    0.2316495789994598    0.9201138693454879 Se
   0.6322540240045280    0.4064038359257542    0.8824075710371124 Se
   0.7513099201135293    0.5459325162418822    0.8954485707976432 Se
   0.9242509676477486    0.7026346965084147    0.8892505040398199 Se
   0.9857942002127073    0.9064663064471935    0.8967316207356508 Se
   0.6169022978807446    0.0484486547621487    0.8844457493240516 Se
   0.7728141913015933    0.2548053793919088    0.8998022532695805 Se
   0.9254008652801865    0.3712435405571500    0.9022881625244703 Se
   0.0375071713010209    0.5482717607311934    0.8952013163825063 Se
   0.8837674582170766    0.0795089254870842    0.8916829528806260 Se
   0.0376516197819616    0.2302356054409014    0.9148881138688110 Se
   0.0294091654072620    0.6493080823073146    0.7847855136444843 Se
   0.1418629894600027    0.8388322201370507    0.7802981801373379 Se
   0.0512579317004668    0.3480673397767128    0.7965000268805645 Se
   0.1781369251867709    0.5117278657150355    0.7733383024788225 Se
   0.3369585338022781    0.6890480381082874    0.7889053068048058 Se
   0.3974075854242058    0.8324083646305508    0.7818318257663627 Se
   0.9895046946349035    0.0079250067230612    0.8234474168546052 Se
   0.1575110809529711    0.1914689748179424    0.7939807048668724 Se
   0.2983984356176168    0.3691772079249251    0.7719483317126475 Se
   0.4244527035545528    0.5109617178105905    0.7905959924002013 Se
   0.5144600516375164    0.6810692196951330    0.7714671879858946 Se
   0.6335876681658604    0.8618302575290578    0.7803349341720203 Se
   0.3007343874575331    0.0270568532519397    0.7930418063445284 Se
   0.4158741115781237    0.1954896646194348    0.7830213199797238 Se
   0.5086275811719555    0.3368230992595838    0.7995806832421349 Se
   0.6601182960153024    0.5066731029135199    0.7817482938693568 Se
   0.7508060989859148    0.6325389633810315    0.8108508067861447 Se
   0.8514991968202129    0.7633643848394471    0.7886680762173096 Se
   0.5177858638105106    0.0027208677472767    0.7965133919840854 Se
   0.6221124010710170    0.1759311326422347    0.7982642205453250 Se
   0.8166288474819049    0.3437818982733293    0.7967806940545037 Se
   0.8676392548260284    0.5060928252107451    0.7918823836140891 Se
   0.7434621651375102    0.0162299593388533    0.7903988571232677 Se
   0.9506926858864351    0.2013142020610376    0.8076532057687663 Se
   0.1431000185109809    0.6373851888831122    0.3497046161764464 Se
   0.2864175692029437    0.7992917347964068    0.3243376496937537 Se
   0.1672045994482744    0.2743072436246974    0.3409604971978891 Se
   0.2843127823509918    0.4448499537863211    0.3439643042142143 Se
   0.3969251026031727    0.6397062996942118    0.3488258606199464 Se
   0.5314660892520906    0.7834701005566858    0.3332952762010575 Se
   0.1752106135314382    0.9367586158998629    0.3437270736267181 Se
   0.3213975737278502    0.0652903084012787    0.3109411381795667 Se
   0.3840569182731596    0.2687678582729738    0.3537909965779655 Se
   0.5318750734615658    0.4469462069875952    0.3463466339168170 Se
   0.6357748445904459    0.6446069262309276    0.3420898484454063 Se
   0.7651086917027833    0.7747115339804276    0.3188389119776621 Se
   0.4379515533901916    0.9297680829492468    0.3058213011482930 Se
   0.5417594512546242    0.1134909851138822    0.3185154764724560 Se
   0.6643800300241828    0.2614105716805259    0.3399347255026591 Se
   0.7820311542832471    0.4550873218207446    0.3515723893934939 Se
   0.9044537609861901    0.6076595568745590    0.3366068147259517 Se
   0.0036756418547801    0.7545740843263185    0.3445122734585718 Se
   0.6540309513322423    0.9587729012488846    0.3200731792878185 Se
   0.7993803829953374    0.0933412952269801    0.3284206888193926 Se
   0.8900444767364151    0.2816042357370914    0.3284510944299027 Se
   0.0254985058147182    0.4627352006065353    0.3536105676804332 Se
   0.9090118603642555    0.9387623873422574    0.3251930163190921 Se
   0.0658049665738391    0.1029448912079042    0.3353438124432255 Se
   0.0363105072133256    0.6574365035657158    0.2226596175101166 Se
   0.1443678695603544    0.8007696295706616    0.2188348590100194 Se
   0.0437629107868518    0.3424395527437071    0.2154377838225914 Se
   0.1751258530358512    0.4873788692962555    0.2359171319476862 Se
   0.2815079804970249    0.6909112735445411    0.2496310646704949 Se
   0.4016473883957665    0.8282194849636447    0.1999115430623468 Se
   0.0318844682437690   -0.0045593507127714    0.2104960367957338 Se
   0.1847500220347652    0.1498585301094313    0.2187860763821681 Se
   0.3144401003208629    0.3303774833392298    0.2227912637797976 Se
   0.3815425544809940    0.5021623504583559    0.2426718552671556 Se
   0.5599959978820545    0.6721610502736282    0.2118475828892862 Se
   0.6585119957143196    0.8241666078833264    0.2091668772505790 Se
   0.2933548897648264    0.9884667993205672    0.2173352943949730 Se
   0.4306662998848857    0.1603053421272001    0.2151046586173326 Se
   0.5110388098156446    0.3599807130198540    0.2421202106193299 Se
   0.6175305924634168    0.5126617501429387    0.2251231402166089 Se
   0.7498932936488250    0.6745048281824922    0.2077742334636999 Se
   0.9220934277600817    0.8514577935919571    0.2160081396153463 Se
   0.5570625734578613    0.9835752396229573    0.2173844111504123 Se
   0.6486608108426100    0.1914544678753730    0.2349317896906069 Se
   0.7400124722401967    0.3503417563664171    0.2098368030645648 Se
   0.9081286915640842    0.5074664513352825    0.2404011241789525 Se
   0.7676811431073089    0.0133037730200245    0.2193444035817542 Se
   0.8812483525790039    0.1583985858632383    0.2255608473569188 Se
   0.1718984341654265    0.6403681789489394    0.1361349396984906 Se
   0.2957252199875681    0.7463640615159646    0.1270924447838290 Se
   0.1808877885435462    0.2605120479251355    0.1312209252614390 Se
   0.2613521717387525    0.4350464340031128    0.1357119341720537 Se
   0.4464169337955922    0.6175696120172611    0.1337171924715575 Se
   0.5359038642902669    0.8011821707499780    0.1180566324209278 Se
   0.1556647247029485    0.9246770527913080    0.1362064430023275 Se
   0.2903295920761858    0.0972876369478046    0.1295750127628386 Se
   0.3996166928861108    0.2924953228710472    0.1112294034148575 Se
   0.4687782936313393    0.4507932668202106    0.1305339589404640 Se
   0.6753396213766444    0.5928715422929056    0.1205101312997794 Se
   0.7969679688901715    0.7783337362032177    0.1313976787555031 Se
   0.4193024661688558    0.9419901820639426    0.1331060731130637 Se
   0.5294306518965279    0.0855673873776181    0.1154233728997199 Se
   0.6437826368658247    0.2618974609405105    0.1207055959387727 Se
   0.8483873604437704    0.4697620009135747    0.1391290570147631 Se
   0.9245354784021662    0.6039013520651811    0.1427847469553208 Se
   0.0303706932110459    0.7853106688951749    0.1273333507747934 Se
   0.6642792657986599    0.9478972277414086    0.1250606149210622 Se
   0.7385365727016554    0.1173715922511892    0.1347439665495516 Se
   0.8999727166041128    0.2993448664735672    0.1269337341795181 Se
   0.0396156923566245    0.4417912556139601    0.1328090336873115 Se
   0.8797546711183115    0.9601374605343160    0.1264051443352660 Se
   0.0381751788431639    0.1333931502931944    0.1358679717556604 Se
   0.1548580181680270    0.7400308744005232    0.6647201061643634 Se
   0.2482018475772753    0.9327102722390976    0.6827897261246375 Se
   0.1386468324736070    0.4387026368725498    0.6682251045627228 Se
   0.2603463076757386    0.5686857489780313    0.6670222452458406 Se
   0.4015110603259415    0.7449995022305330    0.6692341698785517 Se
   0.4963390875040684    0.9155784797485802    0.6920350364852291 Se
   0.1408132633223494    0.0764910280906996    0.6778947569601033 Se
   0.2589427212872784    0.2432324659571925    0.6786532265849150 Se
   0.3960146681890362    0.4089434575593048    0.6669654435558767 Se
   0.4857736620926228    0.5945217070101717    0.6581043799215115 Se
   0.6276959246264625    0.7432632025417614    0.6697353612605860 Se
   0.8064694426262429    0.9055958898930312    0.6637645012626181 Se
   0.3905348725128054    0.0724277241454096    0.6834112034383601 Se
   0.5231844553755847    0.2418951071890786    0.6726690014834263 Se
   0.6505871857423126    0.4005480178892362    0.6861510496601472 Se
   0.7443927523967512    0.5760253552342228    0.6774938038544758 Se
   0.8758130117081510    0.7417581072501890    0.6662604343451486 Se
   0.0287855533974229    0.9337937595122475    0.6919715522435048 Se
   0.6227347683463055    0.0733434748951012    0.6706909661623313 Se
   0.7214185089775293    0.2183340190885977    0.6869963924578449 Se
   0.8944188295855857    0.3922001791244734    0.6941467228415333 Se
   0.0102724978805431    0.5853460658350441    0.6664107917597589 Se
   0.8635434854238916    0.0657114630777458    0.6936188012524572 Se
   0.0271671021163036    0.2500729427206066    0.6712690068896107 Se
   0.1376427466028082    0.6218808940120962    0.5631085653707428 Se
   0.2570655430388605    0.8184726329248481    0.5670211994264900 Se
   0.1640281554213494    0.3062429176653034    0.5657381494884824 Se
   0.3041022835129515    0.4635466827065094    0.5624536752982181 Se
   0.3628051503796411    0.6329243040430305    0.5478222282186987 Se
   0.4669153409206424    0.8176294168880033    0.5544279306339099 Se
   0.1216739877803816    0.9824509515738309    0.5789295066636234 Se
   0.2656435422845514    0.1361181887864598    0.5640407813413265 Se
   0.4382651079507893    0.2841402306349997    0.5417812014272461 Se
   0.5476511947940221    0.4318730403160627    0.5591925900391154 Se
   0.6470367286194761    0.5781152616481229    0.5472842828019819 Se
   0.7574743197925774    0.7611838100344885    0.5569773241305240 Se
   0.3848025735420291    0.9690002957602917    0.5904736148298120 Se
   0.4815225972370330    0.1215994593262504    0.5678297881895052 Se
   0.7361004493669546    0.2577543688110889    0.5398800154513963 Se
   0.7584582528182716    0.4676992950169922    0.5896449784115154 Se
   0.8653690960980713    0.6077411584265117    0.5519253149996189 Se
   0.0301957783701529    0.7898939560631857    0.5510632658225201 Se
   0.6563781650561876    0.9719379516305894    0.5437291652654191 Se
   0.8187745327548044    0.1226611861855463    0.5501945340936607 Se
   0.9179680218210264    0.2807696331973972    0.5592326853496782 Se
   0.9980637264969666    0.4620687879322548    0.5757519533015265 Se
   0.8762871962988469    0.9443883610074419    0.5323086843067991 Se
   0.0212337488790721    0.1237723273179692    0.5920072604588368 Se
   0.1349807928567885    0.7022946900419450    0.4773580611805657 Se
   0.2193358606186556    0.8981746820848870    0.4618612236480672 Se
   0.1571044676664493    0.4253580630765490    0.4663184856722917 Se
   0.2877079440203752    0.5456922450055770    0.4562278325140024 Se
   0.3639591971272475    0.7634233192936352    0.4383753954859430 Se
   0.4857209090569079    0.9375519643216255    0.4512192599695403 Se
   0.1142435152441751    0.0448183830525545    0.4587605196312154 Se
   0.2852949371844709    0.2233801683929626    0.4724764571195522 Se
   0.4260264036649253    0.3971239261009092    0.4697031981389629 Se
   0.5470258638650418    0.5264660126816065    0.4501934882743102 Se
   0.6516837376082971    0.7121956783455412    0.4523987303552608 Se
   0.7235760488651962    0.9007904651669268    0.4359162164380950 Se
   0.3695664299122278    0.0975152146093616    0.4194069723138874 Se
   0.4773468091852163    0.2074270649862066    0.4301525155447014 Se
   0.6654469453532489    0.3554345998921771    0.4534612560851735 Se
   0.7654287663015030    0.5584719547252830    0.4432035391328728 Se
   0.8968134617686007    0.7183883294548418    0.4619247078897915 Se
   0.0192945709954207    0.8854675070780279    0.4675948530585388 Se
   0.6254731843575750    0.0707766527442330    0.4576378509354587 Se
   0.7557316914217695    0.1969974799627389    0.4377472356204601 Se
   0.9018576003521294    0.3845600071519227    0.4703881596944096 Se
   0.0302063882503697    0.5439468784776994    0.4757509074821759 Se
   0.8997534062309159    0.0760236325347926    0.4480784606421258 Se
   0.0336084848693921    0.2369876805230333    0.4523486112170574 Se
