Nb1 Se2
1.0
   1.7591361881568708   -3.0469132553207445    0.0000000000000000
   1.7591361881568708    3.0469132553207445    0.0000000000000000
   0.0000000000000000    0.0000000000000000    6.5286303700000001
Nb Se
1 2
direct
   0.0000000000000000    0.0000000000000000    0.0000000000000000 Nb
   0.6666666666666666    0.3333333333333333    0.7478393300000001 Se
   0.3333333333333334    0.6666666666666667    0.2521606699999999 Se
